! FP-CL20 for CL-20 explosive

!Note: If you use FP-CL20 model, you must cite to the following article
"Zhang, T.; et al. Performance prediction of high-energy-density-material CL-20 based on First-Principle-CL20 chemical kinetics model"


ELEMEN
O  H  C  N  
END
SPECIES

CL20

CL20-NO2

CL20-2NO2

CL20-3NO2

CL20-4NO2

CL20-5NO2

C6N6H6

L-C5N5H4O

L-C4N4H3O

C3N3H3

C3N3H2

C3N3H3-CN

C6N6H6-HCN

C3N3H2O

L-C3N3H2O

L-NCHNCO

L-NCNCO

L-C3N3HO-A

L-NCNCN

L-NCNCN2O

L-C4N5

L-NCHNC

L-NCHNCO

C3N3H3-NH

L-C3N3H3-NH

L-C3N3H3-NH-NO

CNCHN2O

HCNC

L-NCNC

C3N3H3O-NH

L-C3N3H3O-NH

C2N3H3-NH

L-C2N3H3-2NH

L-CNHCN

C2N3H2

HCNCH

HCNCO

L-CN2H3-2NH

L-CN2H3-2NH-NO

L-CNH3-2NH

L-CHNCN

CNC

CNCO

L-NCN2O

L-C2N2HO-NH

C3N3H3-2NH

C3N3H2-2NH

L-C3N3H2-2NH

C6N6H5

C6N6H5O

L-C3N3H3

L-C3N3HO-B

L-C2N3H

L-C2N3H-NH

L-C2N3HO-NH-NO

L-HNCNCO

L-C3N3H2

L-C6N6H6O

C6N6H5-NO-B

C6N7H5O2

C6N5H5O2

HCNCHO

ONNO

CL20-HONO

CL20-2NO2-HONO

CL20-3NO2-HONO

CL20-4NO2-HONO

CL20-5NO2-HONO

NO2-C3N4H2-NO2

C2N3H-NO2

L-CL20-4NO2-HONO

C4N3H4

C2N3H-NO

C3N2H3-NO2

C2N2H2-NO2

C2N2H2-NO

N2O2

CL20-O

CL20-HCO

CL20-NO2-HCO

CL20-2NO2-A-HCO

CL20-2NO2-A-CO

C3N2H3-NO2

C3N3H2O-2NO2

C3N2H3

C3N2H2O-NO2

C3N2H2O

L-C3N2H2O

HNCN HNCNH HCN HNC CN NCNOH  NCO HNCO   NCN H2  C  O  N  H  CO CO2 N2 H2O OH HNO2 HONO   NO2 NO H2NO H2O2 N2O  NH 
HCO  CH2O   NO3 HNO  HONO2  HON  HNO3  NCCN   HOCO   NH2   HCNO NH3   HOCN   O2   NCNO     H2CN     HCNH   HO2   HCOH   CH   OCHO    HCOOH

Cy4NO2-HONO-H

Cy4NO2-HONO-O

Cy5NO2-HONO-H

Cy5NO2-HONO-O

Cy5NO2-HONO-A

L-5NO2-HONO-A

L-C5N5H4

L-C4N4H3

L-5NO2-HONO-O

L-C5N5H3O

L-C5N5H3O-BC

L-5NO2-HONO-H

L-5NO2-HONO-H-B

L-C5N5H3

L-C5N5H3O-A-BC

L-C4N4H2O-A

L-NCHNCH

L-NCONCO

END
!THERMO
! Insert GRI-Mech thermodynamics here or use in default file
!END

REACTIONS




!!!!!CLUSTER
  
C3N3H3+CN=>C3N3H3-CN	1.68E+04  	2.43	-13997.61051     !  

C6N6H6+HCN=>C6N6H6-HCN	1.37E+12	-0.7434	52078.85305  ! 

C3N3H3+HCN=>C3N3H3-CN+H	4.50E+02	1.501	91232.97491    !   

C3N3H3+H=>C3N3H2+H2	3.67E+07	0.4099	8045.400239

CL20+NO2=>CL20-HONO+NO2+HONO	     7.81E+12	2.651	57304.6595   !  

2CL20=2CL20-O+O2	          5.58E+06	1.592	76506.57109

CL20-O=>CL20-NO2+NO	6.09E+12	2.943	36657.10872  

CL20+OH=CL20-HONO+NO2+H2O	2.50E+25	-1.219	16721.62485   ! 

CL20+H=CL20-O+OH	2.44E+11	0.7563	9163.679809

2CL20=CL20-HCO+CL20-O	5.79E+12	2.091	75605.73477

CL20-NO2+NO=>CL20-2NO2+NO2+NO	       1.94E+01	1.935	14315.41219  ! 

CL20+NO2=CL20-O+NO3	1.07E+09	1.501	24246.11708         !   

CL20-HCO=CL20-NO2-HCO+NO2	5.06E+12	3.288	32544.80287

CL20-NO2-HCO=CL20-2NO2-A-HCO+N2O2+NO2	5.17E+12	3.827	62972.52091

CL20-2NO2-A-HCO+NO2=>CL20-2NO2-A-CO+HONO	8.47E+09	1.427	19988.05257

CL20-2NO2-A-CO=C3N2H3-NO2+C3N3H2O-2NO2	2.85E+11	0.5629	3708.482676

C3N2H3-NO2=>C3N2H3+NO2 	7.38E+12	3.106	29980.88411

C3N3H2O-2NO2=C3N2H2O-NO2+N2O2  	6.48E+12	3.189	58109.91637

C3N2H2O-NO2=>C3N2H2O+NO2	4.85E+11	0.6752	11526.88172

C3N2H3+NO2=>C3N2H2O+NO+H	3.67E+11	2.405	59765.83035    !  

C3N2H2O=L-C3N2H2O	1.02E+11	0.8698	38862.60454

L-C3N2H2O=HCNCH+NCO	6.68E+12	2.856	90284.34886


CL20-5NO2+NO2=>CL20-4NO2-HONO+HONO  	1.97E+00	2.206	18052.5687  ! 
CL20-4NO2-HONO+NO2=>Cy4NO2-HONO-H+HONO	7.47E+00	2.242	28573.4767  ! 
Cy4NO2-HONO-H+NO2=>Cy4NO2-HONO-O+NO	2.64E+01	1.565	8430.107527  ! 
Cy4NO2-HONO-H=>Cy5NO2-HONO-H+NO2 	6.90E+12	2.993	33524.49223    ! 
Cy4NO2-HONO-O=>Cy5NO2-HONO-O+NO2	  3.21E+12	3.086	31949.82079    !
Cy5NO2-HONO-O=L-5NO2-HONO-O	5.02E+11	0.6699	14449.22342  !  
L-5NO2-HONO-O=L-C5N5H3O+HCN	1.52E+11	0.9041	24229.39068   !  
L-C5N5H3O=L-C5N5H3O-BC	4.47E+11	0.5906	22458.78136   !  
L-C5N5H3O-BC=>NCN+NCO+C3N2H3	3.72E+12	5.18	61156.51135  !  
Cy5NO2-HONO-H+NO2=>Cy5NO2-HONO-O+NO	3.86E+12	2.713	18762.24612   !  
Cy5NO2-HONO-H=L-5NO2-HONO-H	2.58E+11	0.606	21658.30346   !   
L-5NO2-HONO-H=>L-5NO2-HONO-H-B	2.33E+11	0.7224	14272.40143   !  
L-5NO2-HONO-H-B=>L-C5N5H3+HCN	2.90E+11	1.092	28207.8853   ! 
L-C5N5H3+NO2=>L-C5N5H3O-A-BC+NO	4.19E+10	1.026	2102.747909     ! 

L-C5N5H3O-A-BC=>L-C4N4H2O-A+HCN	   1.91E+11	0.9644	24728.79331    !  
L-C4N4H2O-A=>L-NCNCO+L-NCHNCH	2.52E+11	0.7629	21543.60812  ! 
L-NCNCO+NO2=>L-NCONCO+NO	5.29E+01	1.457	23431.30227 ! 
L-NCHNCH=>HCN+HCN	9.13E+10	0.9235	37393.07049   ! 
L-NCONCO=>NCO+NCO	3.48E+11	0.642	23111.11111   !  
CL20-5NO2-HONO=C6N6H5	1.15E+08	2.342	24363.20191    !
CL20-5NO2-HONO+NO2=>C6N6H5O+NO	   1.17E+00	1.491	39297.49104    !
CL20-5NO2-HONO=>Cy5NO2-HONO-A	3.50E+09	1.741	38272.40143     !  
Cy5NO2-HONO-A=>L-5NO2-HONO-A	1.07E+12	0.1767	2879.330944    ! 
L-5NO2-HONO-A=>L-C5N5H4+HCN 	5.48E+11	0.9366	15964.15771   ! 
L-C5N5H4=>L-C4N4H3+HCN	5.97E+11	1.286	26939.0681          ! 
L-C4N4H3=>C3N3H2+HCN	2.12E+11	0.997	27111.11111        ! 

CL20=CL20-HONO+HONO	  2.68E+09	0.9265	60867.38351       !      

CL20-HONO=CL20-2NO2-HONO+2NO2	  8.00E+12	3.231	36384.70729   ! 

CL20-2NO2-HONO=CL20-3NO2-HONO+NO2	6.33E+12	3.316	29120.66906     !  

CL20-3NO2-HONO=CL20-4NO2-HONO+NO2	9.17E+10	0.9022	36339.30705   ! 

CL20-4NO2-HONO=>CL20-5NO2-HONO+NO2	1.22E+13	3.059	33469.53405  !  

CL20-5NO2-HONO+NO=>C6N6H5-NO-B	  7.31E+07	2.653	71608.12425

CL20-3NO2-HONO=>NO2-C3N4H2-NO2+HCNCH+HCN	3.34E+12	7.057	93125.44803

NO2-C3N4H2-NO2 => C2N3H-NO2+NO2+HCN	3.67E+12	3.781	46618.87694

C2N3H-NO2=>NO2+HCN+NCN	1.78E+11	2.183	43831.78017   !  

CL20-4NO2-HONO=>L-CL20-4NO2-HONO	  1.48E+07	3.375	75182.7957

L-CL20-4NO2-HONO => C4N3H4+C2N3H-NO2	6.72E+12	3.433	82559.13978  ! 

C2N3H-NO2+NO=>C2N3H-NO+NO2	7.39E+02	1.256	26396.65472  !  

C2N3H-NO+NO => L-CHNCN+N2+NO2 	8.93E+02	1.229	34023.89486  !   

C4N3H4+NO2=>L-C3N3H3+HCO+NO	7.19E+12	2.964	79505.37634

C3N2H3-NO2+NO2=>C2N2H2-NO2+HCO+NO	7.03E+12	3.731	69947.4313  ! 

C2N2H2-NO2+NO=>C2N2H2-NO+NO2	   8.15E+02	1.182	27266.42772   !  

C2N2H2-NO+NO=>HCNCH+NO2+N2	1.99E+03	1.046	30250.89606   !  

C2N2H2-NO+H=>HCNCH+OH+N2	3.93E+12	2.879	52167.26404

N2O2+H=>N2O+OH	    3.00E+11	0.721	2573.476703

N2O2+NO=>N2O+NO2	4.45E+11	0.3622	525.6869773    !  

CL20=CL20-2NO2+2NO2     1E+43	  -7	65323.77539  ! 

CL20-NO2=CL20-2NO2+NO2	3.44E+12	0.6398	5345.280765 

CL20-2NO2=CL20-3NO2+NO2	     5.00E+20 	0.6882	36805.25687   ! 

CL20-3NO2=CL20-4NO2+NO2 	2.24E+12	1.141	20427.71804   !  

CL20-4NO2=CL20-5NO2+NO2 	5.00E+21	1.048	33087.21625      !   

CL20-5NO2=C6N6H6+NO2	7.97E+14	 0.9416	35409.79689   ! 

C6N6H6=C3N3H3+C3N3H3	1.57E+11	0.643	38145.75866  !   

C6N6H6+OH=>C6N6H5+H2O	1.78E+12	0.3532	3727.598566     ! 

C3N3H3+NO3=>C3N3H2+HONO2	8.37E+00	1.707	8962.962963   ! 

C3N3H3+O=>C3N3H2+OH	1.87E+05	1.057	2864.994026   ! 

C3N3H3+NO2=>C3N3H2+HONO	1.027e+12  	0.2758	30277  !   

C3N3H3+OH=>C3N3H2+H2O	9537	1.136	0       !   

C3N3H3=C3N3H2+H	3.76E+11	2.642	104559.1398

C6N6H6+NO2=>C6N6H5+HONO	8.39E+07	1.812	24817.2043   ! 

C6N6H5+NO2=>C6N6H5O+NO	1.42E+12	-0.4407	17531.66069  ! 

C6N6H5O=>L-C3N3H3+L-C3N3H2O	4.70E+14	4.207	82874.55197    !   

C6N6H5O=>L-C5N5H4O+HCN	   1.44E+12	0.9293	17988.05257    !
L-C5N5H4O=>L-C4N4H3O+HCN	1.70E+11	0.974	17612.90323  !
L-C4N4H3O=>L-C3N3H2O+HCN	1.09E+11	0.9355	18238.94863  !


C3N3H2+NO2=>C3N3H2O+NO	9.21E+10	-0.2176	11017.92115   !  

C3N3H2O=>L-C3N3H2O	3.65E+11	0.5626	6611.708483

L-C3N3H2O=>L-NCHNCO+HCN	   9.41E+11	0.9038	18707.28793  !  

L-NCHNCO=L-NCNCO+H	1.08E+10	1.2	35254.48029

L-NCNCO+NO2=>NCN+CO2+NO	2.86E+01	1.505	27641.57706   !  

L-C3N3H2O+OH=>L-C3N3HO-A+H2O	3.30E+05	0.7257	0

L-C3N3H2O+NO2=>L-C3N3HO-A+HONO	5.394	2.089	24853.04659   !   

L-C3N3HO-A=>L-NCNCO+HCN	1.12E+11	0.8852	33383.51254

L-NCNCN=NCN+CN	7.85E+12	3.266	86857.82557

L-NCNCN+NO=>L-NCNCN2O	1.76E+06	0.6241	11916.36798

L-NCNCN2O+NO=>L-NCNC+N2+NO2	0.4262	2.3	17581.8399

L-NCNCN2O+H=>L-NCNC+N2+OH	3.39E+12	2.78	47338.11231

L-NCNCN2O=L-NCNC+N2O	2.11E+07	2.352	74676.22461

L-NCNCN2O+L-NCNCN=L-C4N5+N2O	1.08E+02	2.221	-1863.799283   !  

L-C4N5=L-NCNC+L-NCNCN	4.77E+12	1.064	29701.31422

L-NCNCN2O+NO2=>L-NCNCO+N2+NO2	123.3	1.175	7020.310633

L-NCNC+NO2=>NCO+CN+NO	2.22E+04	1.362	23612.90323  ! 


L-NCNC+NO2=>L-NCNCO+NO	4.09E+04	1.521	16771.80406  ! 

L-NCHNC+NO2=>L-NCHNCO+NO	8.28E+02	1.593	16231.78017   ! 
L-NCHNC=HCN+CN	1.75E+11	0.8471	31402.62843

L-NCHNC=L-NCNC+H	1.19E+09	2.232	32970.13142

L-NCHNC+OH=>L-NCNC+H2O	1.19E+04	1.023	8019.11589

C3N3H3=C3N3H3-NH	1.55E+10	1.152	88566.30824

C3N3H3-NH=L-C3N3H3-NH	1.99E+11	0.6914	10970.13142

L-C3N3H3-NH = L-NCHNC+HCNH	1.52E+12	0.8545	87135.00597   !  

L-C3N3H3-NH+NO=L-C3N3H3-NH-NO	13.77	1.941	18403.82318

L-C3N3H3-NH-NO=CNCHN2O+HCNH	9.83E+12	2.485	37280.76464

  CNCHN2O+NO => HCNC+NO2+N2	2.57E+03	1.071	28836.32019    !  

CNCHN2O=HCNC+N2O	1.46E+12	0.6694	47330.94385   !   

CNCHN2O+H=>HCNC+OH+N2	6.67E+12	1.448	51125.44803

L-NCHNC+NO=CNCHN2O	2E-2	3.5	6783.751493  !    

C3N3H3-NH+NO2=>C3N3H3O-NH+NO	2.18E+01	1.688	6224.611708   !  
C3N3H3O-NH=L-C3N3H3O-NH	2.04E+09	1.808	20140.97969

L-C3N3H3O-NH+NO2=>C2N3H3-NH+NO+CO2	   6.55E+07	1.579	37357.2282

L-C3N3H3O-NH+NO2=>L-C2N3H3-2NH+NO+CO2	   6.55E+07	1.579	37357.2282

L-CNHCN=L-NCNC+H	1.48E+10	1.084	22998.80526

L-NCHNC=L-CNHCN	2.29E+10	0.9485	24255.67503

C2N3H3-NH+OH=>C2N3H2+H2O	6.77E+03	1.306	1641.577061  !    

C2N3H2=HCNCH+N2	3.44E+09	1.653	33923.53644

HCNCH+OH=>HCNC+H2O	1.96E+04  	2.55	-12604.54002  !  



HCNC+NO2=>HCNCO+NO	5.72E+02	1.276	152.9271207   !    

HCNCO+NO2=>HCN+CO2+NO	  4.99E+01	1.723	-573.4767025   !     

HCNC+HONO=HCNCH+NO2	   4.47E+12	-0.1	8057.34767  !    

L-C2N3H3-2NH+NO2=>L-CN2H3-2NH+NCO+NO	3.05E+01	1.462	25135.00597  !  

L-CN2H3-2NH+NO=L-CN2H3-2NH-NO	1.12E+02	1.583	2583.034648   !  

L-CN2H3-2NH-NO+NO=>L-CNH3-2NH+N2+NO2	740.4	1.156	12986.85783

L-CN2H3-2NH-NO+H=>L-CNH3-2NH+N2+OH	5.26E+12	2.324	47457.58662

L-CNH3-2NH=HCNH+H	1.43E+11	2.741	61240.14337

L-CNHCN=L-CHNCN	1.26E+08	1.731	22998.80526

L-CHNCN=L-NCNC+H	1.83E+09	2.247	39878.1362

L-NCNC+NCN=>CN+CNC+N2	5.23E+11	0.9829	86205.49582

HCNC=CNC+H	4.08E+11	2.306	70716.84588

L-CHNCN+OH=>L-NCNC+H2O	5.09E+04	0.9852	17799.28315   !   

L-NCNCN+L-NCNC=>L-NCNC+CNC+N2    	4.12E+12	1.963	95672.64038

CNC+NO2=>CNCO+NO	7.38E+03	1.101	0   !  

CNCO+NO2=>CN+NO+CO2	4.63E+01	2.203	661.8876941   !  

NCN+NO=L-NCN2O	4.61E+04	0.6507	2649.940263 !  

L-NCN2O+NO=>CN+N2+NO2	8.63E+02	1.125	28681.00358   ! 

L-NCN2O+H=>CN+N2+OH	3.76E+12	2.833	60215.05376

HNCN+NO2=>HNC+NO+NO	6.97E+01	1.349	51108.72162    ! 

L-CNHCN+NO2=>L-C2N2HO-NH+NO	6.34E+02	1.402	5653.524492  !   

L-C2N2HO-NH+NO2=>HNCN+CO2+NO 	3.28E+01	1.567	10210.27479     ! 

C3N3H3-NH=C3N3H3-2NH	2.48E+10	1.003	77952.21027

C3N3H3-2NH+NO2=>C3N3H2-2NH+HONO	2.04E-01	2.494	30516.12903  !  

C3N3H2-2NH=L-C3N3H2-2NH     	1.66E+08	1.661	31572.28196

  L-C3N3H2-2NH+NO2=>L-C2N2HO-NH+HNC+NO	2.52E-01	1.981	25777.77778   !  

C2N3H3-NH+NO2=>C2N3H2+HONO	7.20E+00	1.81	25531.66069  ! 

L-CHNCN+NO2=>L-NCNC+HONO	4.23E+01	2.012	21096.77419   ! 

C3N3H3-2NH=C3N3H2-2NH+H	1.07E+11	2.932	95297.49104
C2N3H3-NH=C2N3H2+H	1.65E+11	2.817	106528.0765

L-C3N3H2O+NO2=>L-C3N3HO-B+HONO	1.53E+01	2.086	23804.06213   ! 

L-C3N3HO-B+NO2=>CO2+NO+L-C2N3H	8.47E+00	1.479	26991.6368    ! 

L-C2N3H=L-C2N3H-NH	6.12E+10	0.8815	47283.15412

L-C2N3H-NH+NO2=>L-C2N3HO-NH-NO 	3.54E+01	1.448	22853.04659  ! 

L-C2N3HO-NH-NO+NO=>L-HNCNCO+N2+NO2	409.9	1.087	34301.07527

L-HNCNCO+NO2=>HNCN+CO2+NO	4.57E+01	1.55	7720.430108  ! 

L-C3N3H2O+OH=>L-C3N3HO-B+H2O	5353	1.137	2324.970131

L-C3N3H3+OH=>L-C3N3H2+H2O       8.88E+06	0.568	-38313.0227  ! 

C6N6H6=C6N6H5+H	1.66E+11	2.873	79772.99881

C3N3H3=>L-C3N3H3	8.91E+07	2.717	95653.52449

C6N6H6+NO2=>L-C6N6H6O+NO	2.04E+09	0.9224	28728.79331   !  

L-C6N6H6O => C3N3H3+C2N3H2+HCO  	4.94E+12	3.989	103366.7861  !  

C6N6H5+NO=C6N6H5-NO-B	7.31E+07	2.653	71608.12425

C6N6H5-NO-B+NO2=>C6N7H5O2+NO	3.11E+02	1.973	-16551.97133   !  

C6N7H5O2+NO2 => C6N5H5O2+NO+N2O	6.69E+01	1.652	14673.83513   !  

C6N5H5O2=>HNCO+HCNCHO+C3N3H2 	9.68E+12	3.361	74109.91637

HCNCH+NO2=>HCNCHO+NO	5.58E-01	2.978	-16117.08483  !  

HCNCHO=HCO+HCN	9.93E+10	0.9701	17545.99761  ! 

HNC+NO2=>NO+HNCO	3.55E+04	0.87	18401.43369 ! 

L-NCNCO=CN+NCO	2.75E+12	2.687	115372.6884

L-C3N3H2=HCN+L-NCHNC	1.27E+11	0.8593	16442.05496

L-C3N3H3=L-C3N3H2+H	7.09E+11	2.139	41589.00836

C3N3H2+OH=>C3N3H2O+H	1.93E+11	2.865	107216.2485

C6N6H5+OH=>C6N6H5O+H	1.56E+11	2.763	87335.72282

L-C3N3H2+NO2=>L-C3N3H2O+NO	4.68E+01	1.681	16798.08841 ! 

L-C3N3H3+NO2=>L-C3N3H2+HONO	3.58E+04	  1.09	-19947.4313   ! 

C6N6H6+NO2=>C6N6H5O+H+NO	1.56E+11	2.763	87335.72282   !  
 
C3N3H3+NO2=>C3N3H2O+H+NO        1.93E+11	2.865	107216.2485   !  

L-NCNCO=NCN+CO	2.30E+12	1.5	72974.91039   ! 
  
NO+NO=ONNO	2.88E+04	0.5155	56231.78017  ! 
ONNO+NO=N2O+NO2	4.10E+11	0.3537	8267.622461  ! 

ONNO+H=>N2O+OH	4.66E+08	 -0.003368  	6026.284349   ! 

L-NCHNCO+NO2=>HNCN+CO2+NO	1.52E+01	1.439	26826.76225   ! 

 L-NCNCO+OH=>NCN+HOCO	 3.05E+10 	2.982	61089.60573   !  

 L-NCNCO+OH=>NCN+CO2+H	2.36E+11	2.593	112427.718   !  

  L-NCHNCO=HCN+NCO	2.37E+9	0.7712	22465.94982        !   

L-NCNCO+NO=>L-NCN2O+CO	1.28E+03	1.075	74712.06691 !  

L-NCNCO+NO=>CN+CO2+N2	3.16E+03	0.9186	53569.89247  ! 

L-C3N3H3+NO2=>C2N3H2+HCO+NO	6.68E+12	2.407	17342.89128  ! 

L-C3N3H2O=>C2N3H2+CO	     3.01E+10	1.131	90972.52091      !  

HONO+HONO=>H2O+NO+NO2	1.97E+01	1.762	47842.29391   ! 

NO2+NCN=NCNO+NO	9.68E+02	1.161	7280.764636   ! 

NCNO=CN+NO	1.04E+12	1.063	46176.82198  !  

	

HCOOH+H<=>HOCO+H2                                 +2.30000000E+002 +3.27200000E+000 +4.85800000E+003 !\Author: UB !\Ref: P. MARSHALL, P. GLARBORG, PROC. COMBUST. INST. 35(2015) 153-160 
HCOOH<=>CO+H2O    2.45E+12    0.0    60470.0       ! REF ARAMCO 3.0  2.45E+12 
HCOOH+O<=>CO2+H+OH	2.5e+20	-2.131 	5834.886499       !  Chem Eng Sci 2023; 281: 119159.
HCOOH+OH<=>CO2+H+H2O	3.76E+06	 0.3116	9345.776225      !  Chem Eng Sci 2023; 281: 119159.
HCOOH<=>CO2+H2	 2.5e+13 	 -0.07099	 66946.79952      !  Chem Eng Sci 2023; 281: 119159.
CH2O+OH<=>HCOOH+H	5.00E+09	1.139	13166.3963       !  Chem Eng Sci 2023; 281: 119159.
HCO+H2O<=>HCOOH+H	4.27E+07	-0.4668	38092.02127     !  Chem Eng Sci 2023; 281: 119159.
HCOOH<=>HCO+OH 	5.00E+12	 2.766	102489.8585      !  Chem Eng Sci 2023; 281: 119159.

	
!OH OxHy
  H+OH<=>H2O                             2.50E+13    0.2     -114.0
  OH+OH<=>H2O+O                                  2.88E+06    1.8    -1750.0
  O+H<=>OH                                   4.71E+18   -1.0        0.0
  H2O2<=>OH+OH                          2.00E+12    0.9    48749.0
  H2O2+H<=>H2O+OH                                2.41E+13    0.0     3970.0
  H2O2+H=HO2+H2                                  5.02E+06    2.1     4300.0
  H2O2+O<=>OH+HO2                                9.55E+06    2.0     3970.0
  H2O2+OH<=>H2O+HO2                              1.74E+12    0.0      318.0

! CO HXOY

  CO+O<=>CO2                            1.36E+10    0.0     2384.0

  CO+OH<=>CO2+H                                  2.30E+07    1.4      974.0   ! 
  CO+OH<=>HOCO                                   1.10E+20   -2.8     2056.0

  CO+HO2=CO2+OH                                  8.35E+03    2.5    16560.0
  CO+O2<=>CO2+O                                  1.12E+12    0.0    47700.0
  H+CO2<=>OCHO                                   7.50E+13    0.0    29000.0

  HOCO<=>CO2+H                                   1.90E+38   -8.0    34240.0  !   

  CO+H2O2<=>HOCO+OH                              3.60E+04    2.5    28660.0
  HOCO+H<=>CO2+H2                                3.10E+17   -1.3      555.0

  HOCO+H<=>CO+H2O                                6.00E+15   -0.5     2125.0    !  

  HOCO+O<=>CO2+OH                                8.67E+12    0.0        0.0
  HOCO+OH<=>CO2+H2O                              4.56E+12    0.0      -89.0   !    

 CH+O<=>CO+H                                    5.70E+13    0.0        0.0
 CH+H<=>C+H2                                    1.10E+14    0.0        0.0
 CH+OH<=>HCO+H                                  3.00E+13    0.0        0.0
 CH+H2O<=>H+CH2O                                1.77E+16   -1.2       23.8
 CH+CO2<=>HCO+CO                                1.70E+12    0.0      685.0
 C+OH<=>CO+H                                    5.00E+13    0.0        0.0
 C+O2<=>CO+O                                    5.00E+13    0.0        0.0

 HCOH+O2=>CO2+H+OH                              5.00E+12    0.0        0.0
 HCOH+O2<=>CO2+H2O                              3.00E+13    0.0        0.0
 HCOH+O=>CO2+H+H                                5.00E+13    0.0        0.0
 HCOH+O=>CO+OH+H                                3.00E+13    0.0        0.0
 HCOH+H<=>CH2O+H                                2.00E+14    0.0        0.0
 HCOH+OH<=>HCO+H2O                              2.00E+13    0.0        0.0
 HCO+H<=>CH2O                         1.09E+12    0.5     -260.0
 CO+H2<=>CH2O                          4.30E+07    1.5    79600.0
 CH2O+OH=>H+CO+H2O                              2.56E+11    0.7     9368.7
 CH2O+H=>H+CO+H2                                1.94E+07    2.2    11740.3
 HCO<=>H+CO                                 4.75E+11    0.7    14870.0
 HCO+O2<=>CO+HO2                                1.20E+10    0.8     -727.0
 HCO+O<=>CO+OH                                  3.02E+13    0.0        0.0
 HCO+H<=>CO+H2                                  9.13E+12    0.4     -215.6
 HCO+OH<=>CO+H2O                                3.01E+13    0.0        0.0
 HCO+HCO<=>CO+CH2O                              2.70E+13    0.0        0.0
 HCO+O<=>CO2+H                                  3.00E+13    0.0        0.0
 HCO+HO2=>CO2+H+OH                              3.00E+13    0.0        0.0
 HCO+HCO=>H2+CO+CO                              3.00E+12    0.0        0.0

! CO NOX
CO+NO2=>NO+CO2                                  9.00E+13    0.0    33800.0          !   
CO+N2O=>N2+CO2                                  2.70E+11    0.0    20237.0          !   
HCO+NO2=NO+CO2+H                               2.30E+13    0.0        0.0
HCO+NO2=HONO+CO                                5.00E+12    0.0        0.0
HCO+NO2=NO+CO+OH                               5.00E+12    0.0        0.0
CO2+CN=NCO+CO                                  3.70E+06    2.2    26900.0
HCO+NCO=HNCO+CO                                3.60E+13    0.0        0.0
HCO+HNO=NO+CH2O                                5.80E-01    3.8      115.0
HCO+NO=HNO+CO                                  6.90E+12    0.0        0.0
CO2+N=NO+CO                                    2.00E+12    0.0    20000.0

!NOX HXOY
NO+O<=>NO2                             1.30E+15   -0.8        0.0

NO2+NO2=NO+NO+O2                               4.50E+12    0.0    27599.0

NO2+NO2=NO3+NO                                 9.60E+09    0.7    20900.0    !  

HONO+O=NO2+OH                                  1.20E+13    0.0     5960.0
HONO+OH=NO2+H2O                                1.70E+12    0.0     -520.0   !  
HONO+NO2=HONO2+NO                              2.00E+11    0.0    32700.0

HNO2+O=NO2+OH                                  1.70E+08    1.5     2000.0
HNO2+OH=NO2+H2O                                4.00E+13    0.0        0.0
NO2+O=NO3                              3.50E+12    0.2        0.0
NO3+H=NO2+OH                                   6.00E+13    0.0        0.0
NO3+O=NO2+O2                                   1.00E+13    0.0        0.0

NO2+OH<=>HONO2                         1.63E+13    0.0        0.0
HONO2+H=OH+HONO                                3.80E+05    2.3     6976.0
HONO2+OH=H2O+NO3                               1.00E+10    0.0    -1240.0

HONO2+H=H2O+NO2                                6.10E+01    3.3     6285.0
HNO3+OH<=>NO3+H2O                              1.03E+10    0.0    -1240.0
HON<=>NO+H                                 5.10E+19   -1.7    16045.0
HON+H<=>HNO+H                                  2.40E+13    0.0        0.0
HON+O<=>NO+OH                                  7.00E+13    0.0        0.0
HON+OH<=>HONO+H                                4.00E+13    0.0        0.0
HON+O2<=>NO2+OH                                1.00E+12    0.0     4968.0
N2O<=>N2+O                             1.69E+11    0.0    57653.0
N2O+H=>N2+OH                                  6.40E+07    1.8    13492.0   !
! N2O+H<=>OHV+N2                                 1.60E+14    0.0    50300.0
N2O+O<=>N2+O2                                  3.69E+12    0.0    15936.0
N2O+O<=>NO+NO                                  9.15E+13    0.0    27679.0
N2O+OH<=>HO2+N2                                1.30E-02    4.7    36560.0
N2O+OH<=>HNO+NO                                1.20E-04    4.3    25080.0
N2O+NO=>NO2+N2                                5.30E+05    2.2    46281.0        !    

HNO2<=>HONO                                    2.03E+22   -3.4    44430.0                 !
H+NO2<=>OH+NO                                  1.01E+11    0.8    -1058.0            
OH+NO<=>HONO                                   7.29E+22   -3.4     2660.0               ! 
OH+NO<=>HNO2                                   1.95E+15   -1.6     6099.0              
H+HONO<=>H2+NO2                                1.89E+03    2.8     1422.7
H+HNO2<=>H2+NO2                                2.33E+04    2.8    -2021.9
H+HONO<=>NO+H2O                                2.79E+10    0.8     6146.0                    
HNO+OH<=>H+HONO                                1.03E+05    2.2     6951.0
HNO+OH<=>NO+H2O                                4.18E+10    0.5     5532.0                       !
N2O+H2<=>N2+H2O                                7.00E+12    0.0    32500.0
H+HNO2<=>NO+H2O                                1.27E+10    0.9     5968.0
H+HNO2<=>HNO+OH                                1.81E+08    1.6     6233.0
NO+H=HNO                              1.52E+15   -0.4        0.0
H2NO+O2=HNO+HO2                                2.30E+02    3.0    16500.0
HNO+NO2<=>NO+HONO                              7.85E+02    3.1     3882.4
HNO+O2=NO+HO2                                  3.99E+05    2.3    14605.4

!CN - NOX HXOY

HCN=H+CN                                  3.40E+35   -5.1   133000.0
HCN+N2=H+CN+N2                                 3.60E+26   -2.6   124890.0
HCN=HNC                                    1.60E+26   -3.2    54900.0
CN+H2=HCN+H                                    1.10E+05    2.6     1908.0
HCN+O=NCO+H                                    1.40E+04    2.6     4980.0
HCN+O=NH+CO                                    3.50E+03    2.6     4980.0
HCN+O=CN+OH                                    4.20E+10    0.4    20665.0
HCN+OH=CN+H2O                                  3.90E+06    1.8    10300.0     !
HCN+OH=HOCN+H                                  5.90E+04    2.4    12500.0
HCN+OH=HNCO+H                                  2.00E-03    4.0     1000.0
HCN+OH=NH2+CO                                  7.80E-04    4.0     4000.0
HCN+O2=CN+HO2                                  3.00E+13    0.0    75100.0
HCN+CN=NCCN+H                                  1.50E+07    1.7     1530.0
HNC+H=HCN+H                                    7.80E+13    0.0     3600.0
HNC+O=NH+CO                                    4.60E+12    0.0     2200.0
HNC+OH=HNCO+H                                  3.60E+12    0.0     -479.0
HNC+OH=CN+H2O                                  3.00E+02    3.2    10600.0
CN+O=CO+N                                      1.90E+12    0.5      723.0
CN+OH=NCO+H                                    1.00E+15   -0.4        0.0
CN+O2=NCO+O                                    5.80E+12    0.0     -417.0
CN+O2=NO+CO                                    1.40E+12    0.0     -417.0
CN+NO=NCO+N                                    9.60E+13    0.0    42100.0
CN+NO2=NCO+NO                                  5.30E+15   -0.8      344.0
CN+NO2=CO+N2O                                  4.90E+14   -0.8      344.0
CN+NO2=N2+CO2                                  3.70E+14   -0.8      344.0
CN+HNO=HCN+NO                                  1.80E+13    0.0        0.0
CN+HONO=HCN+NO2                                1.20E+13    0.0        0.0
CN+HNCO=HCN+NCO                                3.20E+13    0.0     9670.0
CN+HNCO=HNCN+CO                                7.70E+13    0.0     9430.0
CN+NCO=NCN+CO                                  1.30E+13    0.0     -308.0
HNCO=CO+NH                                 1.10E+16    0.0    86000.0
HNCO+H=NH2+CO                                  3.60E+04    2.5     2345.0
HNCO+H=NCO+H2                                  9.00E+07    1.7    13900.0
HNCO+O=NCO+OH                                  2.20E+06    2.1    11430.0
HNCO+O=NH+CO2                                  9.60E+07    1.4     8520.0
HNCO+O=HNO+CO                                  1.50E+08    1.6    44012.0
HNCO+OH=NCO+H2O                                3.50E+07    1.5     3600.0
HNCO+HO2=NCO+H2O2                              3.00E+11    0.0    22000.0
HNCO+O2=HNO+CO2                                2.00E+13    0.0    58900.0

HNCO+NH=NH2+NCO                                3.00E+13    0.0    23700.0
HNCO+HNCO=HNCNH+CO2                            6.90E+11    0.0    42100.0
HOCN+H=HNCO+H                                  3.10E+08    0.8     1917.0
HOCN+H=NH2+CO                                  1.20E+08    0.6     2076.0
HOCN+H=H2+NCO                                  2.40E+08    1.5     6617.0
HOCN+O=OH+NCO                                  1.70E+08    1.5     4133.0
HOCN+OH=H2O+NCO                                1.20E+06    2.0     -248.0
HOCN+NH2=NCO+NH3                               9.20E+05    1.9     3646.0
HCNO=HCN+O                                     4.20E+31   -6.1    61210.0
HCNO+H=HCN+OH                                  7.20E+10    0.8     8612.0
HCNO+O=HCO+NO                                  6.30E+13    0.0        0.0
HCNO+O=NCO+OH                                  7.00E+12    0.0        0.0
HCNO+OH=CO+H2NO                                1.00E+13    0.0    -1490.0
HCNO+OH=HCO+HNO                                6.00E+12    0.0    -1490.0
HCNO+CN=HCN+NCO                                6.00E+13    0.0        0.0
HCNO+NCO=HCN+NO+CO                             9.60E+12    0.0        0.0
NCO=N+CO                                   2.20E+14    0.0    54050.0
NCO+H=CO+NH                                    7.20E+13    0.0     1000.0
NCO+O=NO+CO                                    2.00E+15   -0.5        0.0
NCO+OH=HON+CO                                  5.30E+12   -0.1     5126.0
NCO+OH=H+CO+NO                                 8.30E+12   -0.1    18042.0
NCO+HO2=HNCO+O2                                2.00E+13    0.0        0.0
NCO+O2=NO+CO2                                  2.00E+12    0.0    20000.0
NCO+NO=>N2O+CO                                  4.00E+19   -2.2     1743.0
NCO+NO=>N2+CO2                                  1.50E+21   -2.7     1824.0
NCO+NO2=>CO+NO+NO                               2.50E+11    0.0     -707.0
NCO+NO2=>CO2+N2O                                3.00E+12    0.0     -707.0    
NCO+HNO=HNCO+NO                                1.80E+13    0.0        0.0
NCO+HONO=HNCO+NO2                              3.60E+12    0.0        0.0
NCO+NH3=HNCO+NH2                               2.80E+04    2.5      980.0
NCO+N=N2+CO                                    2.00E+13    0.0        0.0
NCO+NCO=>CO+CO+N2                               1.80E+13    0.0        0.0

!NCN HXOY

H+NCN=HNCN                                     1.50E+30   -5.4     4415.0
NCN+H=HCN+N                                    2.20E+11    0.7     5321.0
NCN+H=HNC+N                                    4.30E-04    4.7     2434.0
NCN+O=CN+NO                                    2.50E+13    0.2      -34.0
NCN+OH=NCNOH                                   1.80E+32   -6.4     3924.0
NCN+OH=NCO+NH                                  1.70E+18   -1.8     4143.0
NCN+OH=HCN+NO                                  2.60E+08    1.2     3593.0
NCN+O2=NCO+NO                                  1.30E+12    0.0    23167.0
NCN+NO=CN+N2O                                  1.90E+12    0.0     6280.0
NCN+NCN=CN+CN+N2                               3.70E+12    0.0        0.0
NCN+H2=HNCN+H                                  4.10E+13    0.0    24100.0
HNCN+O=HNC+NO                                  1.20E+14   -0.1       72.0
HNCN+O=NH+NCO                                  5.60E+13   -0.1       72.0
HNCN+O=CN+HNO                                  9.40E+12   -0.1       72.0


HNCN+OH=>NCN+H2O                                1.00E+05    2.5    -1887.0  



NCNOH=NCO+NH                                   5.80E+36   -7.6    59640.0

NCNOH=>NCNO+H                                  2.10E+10   -1.1    66840.0

NCNOH=HCN+NO                                   4.20E+30   -6.1    59260.0

NCNOH+H=HNCN+OH                                1.20E+14    0.0        0.0
NCNOH+O=>NCNO+OH                               1.20E+14    0.0        0.0
NCNOH+O=CN+HONO                                6.00E+13    0.0        0.0

NCNOH+OH=>NCNO+H2O                             6.00E+13    0.0        0.0  

NCNO+H=>HNC+NO                                 6.00E+13    0.0        0.0
NCNO+O=>NCO+NO                                 6.00E+13    0.0        0.0
HNCNH+H=HNCN+H2                                4.80E+08    1.5     7322.0
HNCNH+O=HNCN+OH                                3.40E+08    1.5     4630.0

HNCNH+OH=>HNCN+H2O                              2.40E+06    2.0      -89.0 

! HCN HXOY

HCNH=HCN+H                                     6.10E+28   -5.7    24271.0

HCNH+H=H2CN+H                                  2.00E+13    0.0        0.0
HCNH+H=HCN+H2                                  2.40E+08    1.5     -894.0
HCNH+O=HNCO+H                                  7.00E+13    0.0        0.0
HCNH+O=HCN+OH                                  1.70E+08    1.5     -894.0
HCNH+OH=HCN+H2O                                1.20E+06    2.0    -1192.0


END