! Unravelling the combustion kinetics of N-methyl aniline decomposition and OH-addition pathways !
! from quantum chemistry and flame speed measurements                                            !
! Aboli K. Pingle; Sudarshan Kumar; Neeraj Kumbhakarna                                           !		
! Indian Institute of Technology, Bombay, Mumbai - 400076					 !			

ELEMENTS
C  H  N  O  HE AR 
END
SPECIES
C                 H                 H2                O2                HO2               
O                 H2O2              CO2               HE                AR                
N2                CH                CN                CH3               CNH               
CH4               OH                CO                H2O               HCO               
CH2O              CH3O              CH2               CH2(S)            C2H6              
C4H7              HOCN              C2H2              C2O               C4H6              
CH2CO             HCCO              C2H               HOCO              C4H2              
C5H6              C2H4              C3H3              CH2CHO            CH3O2             
CH2OH             CH3O2H            CH3OH             HCOH              C5H5              
C5H4              C6H5              C6H6              CH2NH             C5H4C             
C3HN              CH2NH2            CH3CO             C3H2              C2H3              
CH3CN             C3H5O             C2H5              C2H3OH            C6H7NO            
C5H5PCO           C5H5CO            C5H5PO            C5H5OA            C5H4COH           
C5H4OH            OCCHCHC           OCOHCHCHC         C5H6NHA           C5H6NHOHS         
C3H3NH            C5H7NOH           C5H7NA            C5H6N             C5H7NOHP          
C5H7NOHB          C5H7NOHA          C5H4CNOHP2        C6H5NH            C5H5CNHA          
C5H4CN            C6H4N             CNHCH3            C5H5CNH           C6H5NHOHT         
C5H4CNOHP         CH3COCH2CC        C6H5NHOH          C5H5NHHCO         C5H5NHCOH         
C4H3O2            C6H5NHCH3         C6H5NCH3          C6H4NHCH3         C6H4NHCH2         
C5H4CNHCH3        C6H5NHCH2         C4H3NHC3H3        C6H5NCH3OHP       C6H4SQNHCH2       
BICYC-C5H4CNHCH3  OCCHCHCHCH2CN     
END
REACTIONS
C6H5NHCH3=C6H5NCH3+H                                  8.6009506E+13  1.0000000E+00   8.8980149E+04
         REV/  2.0836618E+10  1.0000000E+00  0.0000000E+00/
C6H5NHCH3=C6H4NHCH3+H                                 1.1159476E+14  1.0000000E+00   1.1516422E+05
         REV/  2.0836618E+10  1.0000000E+00  0.0000000E+00/
C6H5NHCH3=C6H4NHCH2+H2                                1.0937625E+14  1.0000000E+00   9.2602131E+04
         REV/  2.0836618E+10  1.0000000E+00  0.0000000E+00/
C6H5NHCH3=C6H5NH+CH3                                  1.9258783E+15  1.0000000E+00   7.3412905E+04
         REV/  2.0836618E+10  1.0000000E+00  0.0000000E+00/
C5H5CNHA=C5H5+CNH                                     8.5289013E+14  1.0000000E+00   1.3089837E+03
         REV/  2.0836618E+10  1.0000000E+00  0.0000000E+00/
C5H4CN=C5H4+CN                                        5.2377188E+14  1.0000000E+00   1.4619454E+05
         REV/  2.0836618E+10  1.0000000E+00  0.0000000E+00/
C6H5NCH3=C6H4N+CH4                                    3.2298948E+15  1.0000000E+00   8.1637038E+04
         REV/  2.0836618E+10  1.0000000E+00  0.0000000E+00/
C5H4CNHCH3=C5H4+CNHCH3                                3.3447830E+15  1.0000000E+00   1.1490129E+05
         REV/  2.0836618E+10  1.0000000E+00  0.0000000E+00/
C6H5NHCH3=C6H5NHCH2+H                                 9.7939721E+13  1.0000000E+00   9.3271683E+04
         REV/  2.0836618E+10  1.0000000E+00  0.0000000E+00/
C6H6=C6H5+H                                           3.9940357E+14  1.0000000E+00   1.1539765E+05
         REV/  2.0836618E+10  1.0000000E+00  0.0000000E+00/
C6H5NH=C5H5CNH                                        2.4897521E+10  1.0000000E+00   5.5760450E+04
         REV/  1.7621672E+10  1.0000000E+00  7.5991340E+03/
C6H4NHCH2=C6H4SQNHCH2                                 8.6395707E+09  1.0000000E+00   3.2379464E+03
         REV/  2.9068984E+10  1.0000000E+00  5.4453976E+04/
BICYC-C5H4CNHCH3=C5H4CNHCH3                           3.3034868E+10  1.0000000E+00   4.7594675E+04
         REV/  1.2226985E+10  1.0000000E+00  2.8199627E+04/
C6H4NHCH3=BICYC-C5H4CNHCH3                            3.2278803E+10  1.0000000E+00   4.9901398E+04
         REV/  1.2153067E+10  1.0000000E+00  3.0584789E+03/
C5H5CNH=C5H5CNHA                                      2.2695278E+10  1.0000000E+00   1.5180698E+04
         REV/  2.2695278E+10  1.0000000E+00  1.5180698E+04/
C6H5NHCH2=C6H5+CH2NH                                  1.0582857E+11  1.0000000E+00   4.3850956E+04
         REV/  7.8283833E+13  1.0000000E+00  2.5621192E+03/
C6H4N=C5H4CN                                          2.3679360E+10  1.0000000E+00   2.7320487E+04
         REV/  8.9498198E+09  1.0000000E+00  9.3501351E+04/
C6H5NCH3=C6H4NHCH3                                    6.9953151E+10  1.0000000E+00   6.0675100E+04
         REV/  5.5648419E+10  1.0000000E+00  3.4491032E+04/
C5H4CNHCH3=C5H4C+CH2NH2                               1.6973341E+10  1.0000000E+00   9.1481400E+04
         REV/  2.4298510E+05  1.0000000E+00  1.6118824E+04/
C6H4SQNHCH2=C4H3NHC3H3                                2.3797133E+10  1.0000000E+00   9.7070622E+04
         REV/  2.0905650E+10  1.0000000E+00  5.4194815E+04/
C6H4NHCH3=C6H4SQNHCH2+H                               6.5150103E+09  1.0000000E+00   5.8825831E+04
         REV/  4.0708286E+07  1.0000000E+00  2.6871818E+04/
C6H5NH+OH=C6H5NHOHT                                   2.7542404E+14  1.0000000E+00   6.0560266E+04
         REV/  2.0836618E+10  1.0000000E+00  0.0000000E+00/
C6H5NCH3+OH=C6H5NCH3OHP                               1.9558218E+14  1.0000000E+00   5.4420718E+04
         REV/  2.0836618E+10  1.0000000E+00  0.0000000E+00/
C5H4COH=C5H4C+OH                                      3.2783466E+14  1.0000000E+00   8.6424932E+04
         REV/  2.0836618E+10  1.0000000E+00  0.0000000E+00/
C5H4OH=C5H4+OH                                        1.9536667E+14  1.0000000E+00   1.2516420E+05
         REV/  2.0836618E+10  1.0000000E+00  0.0000000E+00/
C5H4CNOHP+CH4=C6H5NCH3OHP                             1.7571792E+06  1.0000000E+00   3.8516502E+03
         REV/  2.0836618E+10  1.0000000E+00  0.0000000E+00/
CH3COCH2CC=CH3CO+C3H2                                 9.7222783E+14  1.0000000E+00   3.6785205E+04
         REV/  2.0836618E+10  1.0000000E+00  0.0000000E+00/
OCCHCHC+OH=OCOHCHCHC                                  3.6083771E+14  1.0000000E+00   8.4807214E+04
         REV/  2.0836618E+10  1.0000000E+00  0.0000000E+00/
C5H6NHOHS=C5H6NHA+OH                                  1.0783713E+14  1.0000000E+00   3.0560316E+04
         REV/  2.0836618E+10  1.0000000E+00  0.0000000E+00/
C3H3NH=CNH+C2H3                                       5.7835489E+08  1.0000000E+00   1.8981520E+04
         REV/  2.0836618E+10  1.0000000E+00  0.0000000E+00/
C6H5NHOHT=C6H5NHOH                                    1.6089581E+10  1.0000000E+00   8.0784881E+04
         REV/  2.4597396E+10  1.0000000E+00  6.6623258E+04/
C6H5NHOH=C5H5NHHCO                                    2.3928678E+10  1.0000000E+00   4.8292465E+04
         REV/  7.3590939E+09  1.0000000E+00  6.6006417E+04/
C6H5NHOH=C5H5NHCOH                                    3.2136765E+10  1.0000000E+00   6.8390951E+04
         REV/  1.2019814E+10  1.0000000E+00  3.2687571E+04/
C5H5NHCOH=C5H6NHA+CO                                  6.0811969E+09  1.0000000E+00   5.0934906E+03
         REV/  3.6517612E+05  1.0000000E+00  5.9579470E+04/
C5H6NHOHS=C5H7NOH                                     3.3752776E+10  1.0000000E+00   9.0088957E+04
         REV/  5.1231030E+09  1.0000000E+00  8.5769185E+04/
C5H7NOH=CH3CN+C3H5O                                   2.0814065E+11  1.0000000E+00   2.3792631E+04
         REV/  6.6415415E+06  1.0000000E+00  3.0906701E+04/
C3H5O=C2H5+CO                                         9.2509704E+10  1.0000000E+00   1.5272314E+04
         REV/  5.9778072E+06  1.0000000E+00  4.9447709E+03/
C5H6NHA=C5H7NA                                        3.9321095E+10  1.0000000E+00   9.1207806E+04
         REV/  5.9748637E+09  1.0000000E+00  9.0886521E+04/
C5H7NA+OH=C5H6N+H2O                                   5.9186690E+05  1.0000000E+00   8.9162754E+03
         REV/  2.0045927E+05  1.0000000E+00  4.7064430E+04/
C5H6N+H2O=C5H7NOHP                                    2.0045927E+05  1.0000000E+00   4.7064430E+04
         REV/  4.0441469E+09  1.0000000E+00  2.5737282E+04/
C5H7NOHP=C5H7NOHB                                     1.0576817E+10  1.0000000E+00   5.2450340E+04
         REV/  6.0511009E+09  1.0000000E+00  3.5815076E+04/
C5H7NOHB=C2H3OH+C3H3NH                                1.6880032E+10  1.0000000E+00   1.9249466E+04
         REV/  6.3133568E+08  2.0000000E+00  1.6548040E+04/
C5H5NHHCO=C6H7NO                                      4.4440020E+10  1.0000000E+00   8.3692130E+04
         REV/  3.0312124E+09  1.0000000E+00  8.0590353E+04/
C6H7NO=C5H7NA+CO                                      2.9864885E+10  1.0000000E+00   8.0815629E+04
         REV/  4.1000261E+06  1.0000000E+00  8.4347877E+04/
C5H7NA=C3HN+C2H6                                      3.0598125E+10  1.0000000E+00   9.1085441E+04
         REV/  1.2477957E+06  1.0000000E+00  2.2646800E+03/
C5H7NA+OH=C5H7NOHA                                    1.2045640E+07  1.0000000E+00   5.9174099E+02
         REV/  7.7037776E+10  1.0000000E+00  2.5860273E+04/
C5H7NOHA=C4H7+HOCN                                    1.1590583E+11  1.0000000E+00   4.3786951E+04
         REV/  3.5584321E+06  1.0000000E+00  3.3038349E+03/
C4H7=C2H5+C2H2                                        1.4862040E+11  1.0000000E+00   3.2394525E+04
         REV/  1.3368619E+08  1.0000000E+00  7.9718743E+03/
C5H4CNOHP=C5H4CNOHP2                                  5.3424027E+10  1.0000000E+00   2.7785471E+04
         REV/  1.7611960E+10  1.0000000E+00  2.7785471E+04/
C5H4CNOHP2=OCCHCHCHCH2CN                              4.4489043E+10  1.0000000E+00   8.3682090E+04
         REV/  4.7767029E+09  1.0000000E+00  7.4573170E+04/
OCCHCHCHCH2CN=CH3CN+OCCHCHC                           5.6795109E+10  1.0000000E+00   9.2208682E+04
         REV/  6.1583086E+05  1.0000000E+00  1.1676687E+04/
OCCHCHC+OH=C4H3O2                                     1.7138626E-30  1.0000000E+00   7.2841872E+04
         REV/  1.3887728E+11  1.0000000E+00  8.7542526E+04/
C4H3O2=CH3CO+C2O                                      1.6843181E+11  1.0000000E+00   7.2586476E+04
         REV/  1.3457873E+10  1.0000000E+00  1.8393544E+04/
C5H4COH=C5H5PCO                                       8.2123339E+09  1.0000000E+00   2.8266770E+04
         REV/  7.5856325E+09  1.0000000E+00  5.7511827E+04/
C5H5PCO=C5H5CO                                        1.3872154E+10  1.0000000E+00   3.2360639E+04
         REV/  6.0611163E+09  1.0000000E+00  2.2397679E+04/
C5H5CO=C5H5+CO                                        6.2649655E+12  1.0000000E+00   1.1472684E+04
         REV/  4.2471912E+08  1.0000000E+00  2.1162678E+04/
C5H4OH=C5H5PO                                         1.6258987E+10  1.0000000E+00   5.7356205E+04
         REV/  1.5134581E+10  1.0000000E+00  6.4969772E+04/
C5H5PO=C5H5OA                                         3.9191253E+10  1.0000000E+00   8.6392929E+04
         REV/  3.0162109E+09  1.0000000E+00  6.3384684E+03/
C5H5OA=CH3COCH2CC                                     2.3549185E+10  1.0000000E+00   3.3935687E+04
         REV/  2.0574100E+10  1.0000000E+00  2.8814586E+04/
END
