! Skeletal mechanism for ammonia ignition
! Viatcheslav Bykov, Marcus Stein, Ulrich Maas
! "Study of mechanism of ammonia decomposition and oxidation: from NOx reduction to ammonia auto-ignition problem."
! Proceedings of the Combustion Institute (submitted, 2022).
!
!Original mechanism:
! A. Stagni, C. Cavallotti, S. Arunthanayothin, Y. Song,
! O. Herbinet, F. Battin-Leclerc, T. Faravelli
! "An experimental, theoretical and kinetic-modeling study of the gas-phase oxidation of ammonia"
! Reaction Chemistry and Engineering (submitted) (2020).
! 
! CHEMKIN format
ELEMENTS
!++++++++++++++++++++++++++++++++++++++++++++++++++++++++++++++++++++++++++++++++++++++++++++++++++++++++++++++++++++++++++++++++++++++++++++++++++++++++++++++
!\START_SPECIES_LIST 
!++++++++++++++++++++++++++++++++++++++++++++++++++++++++++++++++++++++++++++++++++++++++++++++++++++++++++++++++++++++++++++++++++++++++++++++++++++++++++++++
C
H
N
O     
AR    
HE
END
SPECIES
!++++++++++++++++++++++++++++++++++++++++++++++++++++++++++++++++++++++++++++++++++++++++++++++++++++++++++++++++++++++++++++++++++++++++++++++++++++++++++++++
!\SPECIES_MODULE: \H2_O2 
!++++++++++++++++++++++++++++++++++++++++++++++++++++++++++++++++++++++++++++++++++++++++++++++++++++++++++++++++++++++++++++++++++++++++++++++++++++++++++++++
AR         N2              HE            
H2         H               O2            O           H2O
OH         HO2
!++++++++++++++++++++++++++++++++++++++++++++++++++++++++++++++++++++++++++++++++++++++++++++++++++++++++++++++++++++++++++++++++++++++++++++++++++++++++++++++
!\END_SPECIES_MODULE: \H2_O2 
!++++++++++++++++++++++++++++++++++++++++++++++++++++++++++++++++++++++++++++++++++++++++++++++++++++++++++++++++++++++++++++++++++++++++++++++++++++++++++++++
!\SPECIES_MODULE: \NOx_H2O2_HT
!
NO
N2O
NO2
HNO
HNO2
HONO
HONO2
N2H2
H2NN
HNOH
NH3
N
NO3
NH
NNH
NH2
H2NO
!
!\END_SPECIES_MODULE: \NOx_H2O2_HT
END
!++++++++++++++++++++++++++++++++++++++++++++++++++++++++++++++++++++++++++++++++++++++++++++++++++++++++++++++++++++++++++++++++++++++++++++++++++++++++++++++
!\END_SPECIES_LIST 
!++++++++++++++++++++++++++++++++++++++++++++++++++++++++++++++++++++++++++++++++++++++++++++++++++++++++++++++++++++++++++++++++++++++++++++++++++++++++++++++
!\START_KINETICS_INPUT
!++++++++++++++++++++++++++++++++++++++++++++++++++++++++++++++++++++++++++++++++++++++++++++++++++++++++++++++++++++++++++++++++++++++++++++++++++++++++++++++
REACTIONS
H2+M<=>H+H+M                                                 +4.5770000E+019 -1.4000000E+000 +1.0440000E+005   
H2 / 2.500 / H2O / 12.000 / HE / 0.830 / 
H2+O<=>H+OH                                                  +5.0800000E+004 +2.6700000E+000 +6.2920000E+003   
H2+OH<=>H+H2O                                                +4.3800000E+013 +0.0000000E+000 +6.9900000E+003   
O2+H<=>O+OH                                                  +1.1400000E+014 +0.0000000E+000 +1.5286000E+004   
H+OH+M<=>H2O+M                                               +3.5000000E+022 -2.0000000E+000 +0.0000000E+000   
H2 / 0.730 / H2O / 3.650 / AR / 0.380 / 
O+H2O<=>OH+OH                                                +6.7000000E+007 +1.7040000E+000 +1.4986800E+004   
O+H+M<=>OH+M                                                 +4.7140000E+018 -1.0000000E+000 +0.0000000E+000   
H2 / 2.500 / H2O / 12.000 / AR / 0.750 / HE / 0.750 / 
HO2+H<=>OH+OH                                                +7.0790000E+013 +0.0000000E+000 +2.9500000E+002   
OH+HO2<=>H2O+O2                                              +7.0000000E+012 +0.0000000E+000 -1.0929600E+003   
DUP 
OH+HO2<=>H2O+O2                                              +4.5000000E+014 +0.0000000E+000 +1.0929600E+004   
DUP 
O+OH+M=HO2+M                                                 +1.0000000E+016 +0.0000000E+000 +0.0000000E+000    
NH3=NH2+H                .3497E+31 -5.224  111163.3 
PLOG / 0.1               .7230E+30 -5.316  110862.4 /
PLOG / 1                 .3497E+31 -5.224  111163.3 /
PLOG / 10                .1975E+32 -5.155  111887.8 /
PLOG / 100               .2689E+32 -4.920  112778.7 /
NH2+H=NH+H2              .4000E+14    .000   3650.0 
NH3+H=H2+NH2                 .1963E+05   2.854   8520.2 
NH3+OH=H2O+NH2               .1559E+06   2.372    118.9 
NH3+O=NH2+OH                 .4430E+03   3.180   6739.9 
NH3+O2=NH2+HO2               .1415E+11   1.285  55224.0 
NH2+O=HNO+H              .1500E+16   -.547    836.7 
DUPLICATE
NH2+O=HNO+H              .7730E+14   -.277    646.4 
DUPLICATE
NH2+O=NH+OH              .7000E+13   0.000       .0 
DUPLICATE
NH2+O=NH+OH              .3300E+09   1.500   5076.8 
DUPLICATE
NH2+OH=NH+H2O                            .9600E+07   1.970    670.0 
NH2+O2=H2NO+O                            .2600E+12   0.487  29050.0 
NH2+NH=N2H2+H                .1500E+16  -0.500      0.0 
NH2+NH=NH3+N                             .9600E+04   2.460    107.0 
NH+NH=>N2+H2                 .6260E+13   -.036   -160.9 
NH+NH=>N2+H+H                .5634E+14   -.036   -160.9 
NH2+NH2=NH3+NH                           .5640E+01   3.530    550.0 
NH2+NH2=N2H4                 .5600E+49 -11.300  11882.3 
PLOG / 0.1               .2000E+47 -10.930   9994.6 /
PLOG / 1.0               .5600E+49 -11.300  11882.3 /
PLOG / 10.0              .3200E+50 -11.180  13988.5 /
NH2OH(+M)=NH2+OH(+M)                     .1400E+21  -1.310  64080.0 
LOW  /5.4E37 -5.96 66783/                                  
TROE /0.35 1E-30 1E30 1E30/                                  
NH2+NO=N2+H2O                            .2600E+20  -2.369    870.0 
NH2+NO=NNH+OH                            .4300E+11    .294   -866.0 
NH+H=N+H2                .3010E+14    .000       .0 
NH+O=NO+H                                .3000E+14    .000       .0 
NH+OH=HNO+H              .2000E+14    .0         .0 
NH+OH=N+H2O              .2000E+10   1.200       .0 
NH+O2=HNO+O              .4050E+12    .090  10670.0 
NH+N=N2+H                .6410E+12    .510     20.0 
NH+NO=N2O+H              .5328E+13    .026  -2893.9 
NH+NO=N2+OH              .3635E+11    .361  -2844.3 
N+OH=NO+H                                .2830E+14    .000       .0 
N+O2=NO+O                                .9027E+10   1.000   6500.0 
N+NO=O+N2                                .4280E+14    .000   1570.0 
N2H3=N2H2+H              .3600E+48 -10.380  68973.8 
PLOG /                 +1.0000000E-001   .2300E+44  -9.550  64435.8 / 
PLOG /                 +1.0000000E+000   .3600E+48 -10.380  68973.8 /
PLOG /                 +1.0000000E+001   .1800E+46  -9.390  70105.8 /
N2H2=NNH+H               .1800E+41  -8.410  73353.0 
PLOG /             +1.0000000E-001   .5600E+37  -7.750  70215.0 /
PLOG /             +1.0000000E+000   .1800E+41  -8.410  73353.0 /
PLOG /             +1.0000000E+001   .3100E+42  -8.420  76004.2 /
DUPLICATE
N2H2=NNH+H               .2600E+41  -8.530  72886.2 
PLOG /             +1.0000000E-001   .1600E+38  -7.940  70721.5 /
PLOG /             +1.0000000E+000   .2600E+41  -8.530  72886.2 /
PLOG /             +1.0000000E+001   .1300E+45  -9.220  77036.9 /
DUPLICATE
N2H2+H=NNH+H2                            .4121E+10   1.289   -224.1 
N2H2+OH=NNH+H2O                          .5923E+02   3.400  -1363.7 
N2H2+NH2=NNH+NH3                         .8800E-01   4.050  -1610.0 
NNH=N2+H                                 .1000E+10    .000       .0 
NO+O(+M)=NO2(+M)                             .1300E+16  -0.750       .0 
LOW  / .472E25 -2.87 1550./                                  
TROE /0.750 1E03 1E05 1E30/                                
N2/  1.70/O2/  1.50/H2O/ 10.00/
OH+NO=HONO                               .3090E+24  -4.170   1621.0 
PLOG /                0.010              .5020E+22  -4.240    898.9   /
PLOG /                0.100              .5310E+23  -4.240   1184.0   /
PLOG /                0.316              .1380E+24  -4.220   1376.0   /
PLOG /                1.000              .3090E+24  -4.170   1621.0   /
PLOG /                3.160              .5450E+24  -4.090   1911.0   /
PLOG /                10.00              .6350E+24  -3.970   2222.0   /
PLOG /                31.60              .3680E+24  -3.750   2501.0   /
PLOG /                100.0              .7290E+23  -3.410   2660.0   /
HNO=H+NO                                .18259e+21  -3.008  47880.0 
PLOG /            0.100                 .20121e+20  -3.021  47792.0   /
PLOG /            1.000                 .18259e+21  -3.008  47880.0   /
PLOG /            10.00                 .12762e+22  -2.959  48100.0   /
PLOG /            100.0                 .56445e+22  -2.855  48459.0   /
PLOG /            1000.                 .97111e+22  -2.642  48940.0   /
HNO+H=NO+H2                              .9680E+12    .620    360.0 
HNO+O2=NO+HO2                            .2000E+14    .000  14896.0 
HNO+NH2=NO+NH3               .3670E+08   1.63   -1250.0 
H2NO=HNOH                .1300E+28  -4.990  43982.2 
PLOG / 0.1               .8200E+26  -4.940  43793.5 /
PLOG / 1.0               .1300E+28  -4.990  43982.2 /
PLOG / 10.0              .2600E+29  -5.060  44767.1 /
NO2+O(+M)=NO3(+M)                        .3500E+13    .240       .0 
LOW  /2.5E20 -1.50 0/                                              
TROE /0.71 1E-30 1700 1E30/                                        
N2O(+M)=N2+O(+M)                         .9900E+11    .000  57901.0 
LOW/                                    .6020E+15   0.000  57444.0 /
N2 /1.7 / O2 /1.4 / H2O /12. / 
N2O+H=N2+OH                              .5000E+15    .00   18100.0 
DUPLICATE                                                                    
OH+NO=HNO2                               .1430E+19  -3.030   3899.0 
PLOG /                0.010              .3160E+19  -3.740   1405.0   /
PLOG /                0.100              .3030E+19  -3.430   2618.0   /
PLOG /                0.316              .2230E+19  -3.240   3248.0   /
PLOG /                1.000              .1430E+19  -3.030   3899.0   /
PLOG /                3.160              .6910E+18  -2.790   4535.0   /
PLOG /                10.00              .2040E+18  -2.490   5125.0   /
PLOG /                31.60              .3070E+17  -2.120   5648.0   /
PLOG /                100.0              .1950E+16  -1.640   6099.0   /
OH+NO2(+M)=HONO2(+M)                     .3000E+14    .000       .0 
LOW/  .2938E+26  -3.0 0 /
TROE/  0.4E+00 .1E-29 .1E+31 .1E+31/
!++++++++++++++++++++++++++++++++++++++++++++++++++++++++++++++++++++++++++++++++++++++++++++++++++++++++++++++++++++++++++++++++++++++++++++++++++++++++++++++
!\END_KINETICS_INPUT 
!++++++++++++++++++++++++++++++++++++++++++++++++++++++++++++++++++++++++++++++++++++++++++++++++++++++++++++++++++++++++++++++++++++++++++++++++++++++++++++++
END