!DRGEP-M1
ELEMENTS
O H C N AR 
END
SPECIES
H O OH H2 O2 
HO2 H2O H2O2 CO CO2 
CH4 CH3 CH2 CH2(S) CH 
C CH3O CH2OH CH2O HCO 
C2H5 C2H4 C2H2 H2CC C2H 
CH3CH2O cC2H4O CH3CO CH2CHO NO 
NO2 N2O HNO HONO H2NO 
CH3NO NH3 NH2 NH N 
NNH HNC HNCO H2CN CH2NH2 
N2 
END

REACTIONS MOLES CAL/MOLE
![1,2]
H+O2=O+OH    3.6E15 -0.4 1.66E4
![1,3]
2H+M=H2+M    7.0E17 -1.0 0.0E0
    N2/0.0/
    H2O/0.0/
    H2/0.0/
![1,3]
2H+N2=H2+N2    5.4E18 -1.3 0.0E0
![1,3]
2H+H2=2H2    1.0E17 -0.6 0.0E0
![1,3]
2H+H2O=H2+H2O    1.0E19 -1.0 0.0E0
![1,4]
H+O+M=OH+M    6.2E16 -0.6 0.0E0
    H2O/5.0/
![1,5]
H+O2(+M)=HO2(+M)    1.5E12 0.6 0.0E0
    N2/0.0/
    H2O/11.0/
    H2/2.0/
    O2/0.78/
    LOW/3.5E16 -4.1E-1 -1.116E3/
    TROE/5.0E-1 1.0E-30 1.0E30/
![1,6]
H+O2(+N2)=HO2(+N2)    1.5E12 0.6 0.0E0
    LOW/6.37E20 -1.72E0 5.2E2/
    TROE/8.0E-1 1.0E-30 1.0E30/
![1,7]
2O+M=O2+M    1.9E13 0.0 -1.788E3
    N2/1.5/
    O2/1.5/
    H2O/10.0/
![1,8]
O+H2=OH+H    3.8E12 0.0 7.948E3
    DUP
![1,8]
O+H2=OH+H    8.8E14 0.0 1.9175E4
    DUP
![1,9]
2OH=O+H2O    4.3E3 2.7 -1.822E3
![1,10]
OH+H+M=H2O+M    4.5E22 -2.0 0.0E0
    H2/0.73/
    H2O/12.0/
![1,11]
OH+H2=H+H2O    2.1E8 1.5 3.449E3
![1,12]
H2+O2=HO2+H    7.4E5 2.4 5.3502E4
![1]
HO2+H=2OH    8.4E13 0.0 4.0E2
![1,8]
HO2+H=H2O+O    1.4E12 0.0 0.0E0
![1,8]
HO2+O=OH+O2    1.6E13 0.0 -4.45E2
![1]
HO2+OH=H2O+O2    3.6E21 -2.1 9.0E3
    DUP
HO2+OH=H2O+O2    2.0E15 -0.6 0.0E0
    DUP
HO2+OH=H2O+O2    -2.2E96 -24.0 4.9E4
    DUP
![1]
2HO2=H2O2+O2    1.9E11 0.0 -1.408E3
    DUP
2HO2=H2O2+O2    1.0E14 0.0 1.1034E4
    DUP
![1,13]
H2O2(+M)=2OH(+M)    4.0E11 0.0 3.7137E4
    H2O/12.0/
    H2/2.5/
    LOW/2.291E16 0.0E0 4.3638E4/
    TROE/5.0E-1 1.0E-30 1.0E30 1.0E30/
![1,8]
H2O2+H=H2O+OH    1.0E13 0.0 3.58E3
![1,8]
H2O2+H=HO2+H2    1.7E12 0.0 3.76E3
![1,7]
H2O2+O=HO2+OH    9.6E6 2.0 3.97E3
![1,14]
H2O2+OH=H2O+HO2    1.9E12 0.0 4.27E2
    DUP
![1,14]
H2O2+OH=H2O+HO2    1.6E18 0.0 2.941E4
    DUP
![1,15]
CO+O(+M)=CO2(+M)    1.8E10 0.0 2.384E3
    H2/2.5/
    H2O/12.0/
    CO/1.9/
    CO2/3.8/
    LOW/1.35E24 -2.79E0 4.191E3/
    TROE/1.0E0 1.0E-30 1.0E30 1.0E30/
![1,16]
CO+O2=CO2+O    4.7E12 0.0 6.05E4
![1,17]
CO+HO2=CO2+OH    1.6E5 2.2 1.7943E4
![1]
CO+OH=CO2+H    9.3E10 0.0 0.0E0
    DUP
![1]
CO+OH=CO2+H    7.1E5 1.8 1.133E3
    DUP
![20,21]
CH2O(+M)=HCO+H(+M)    8.0E15 0.0 8.7726E4
    LOW/3.734E15 0.0E0 7.3479E4/
![20,21]
CH2O(+M)=CO+H2(+M)    3.7E13 0.0 7.1969E4
    LOW/5.661E15 0.0E0 6.5849E4/
![8,20]
CH2O+H=HCO+H2    4.1E8 1.5 2.444E3
![8,20]
CH2O+O=HCO+OH    4.2E11 0.6 2.76E3
![8,20]
CH2O+O2=HCO+HO2    2.4E5 2.5 3.6461E4
![20,22]
CH2O+OH=HCO+H2O    7.8E7 1.6 -1.055E3
![20,23]
CH2O+HO2=HCO+H2O2    4.1E4 2.5 1.0206E4
![8,20]
CH2O+CH3=HCO+CH4    3.2E1 3.4 4.31E3
![20,24]
HCO=H+CO    6.1E10 -0.9 1.6755E4
![20,25]
HCO+H=CO+H2    1.1E14 0.0 0.0E0
![20,26]
HCO+O=CO+OH    3.0E13 0.0 0.0E0
![20,26]
HCO+O=CO2+H    3.0E13 0.0 0.0E0
![8,20]
HCO+OH=CO+H2O    1.1E14 0.0 0.0E0
![20,27]
HCO+O2=CO+HO2    3.4E12 0.0 0.0E0
![7,20]
HCO+HO2=CO2+OH+H    3.0E13 0.0 0.0E0
![20,25]
2HCO=CO+CH2O    2.7E13 0.0 0.0E0
![20,28]
CH3+H(+M)=CH4(+M)    2.1E14 0.0 0.0E0
    CH4/1.9/
    LOW/6.467E23 -1.8E0 0.0E0/
    TROE/6.376E-1 1.0E-30 3.23E3 1.0E30/
![20,29]
CH4+H=CH3+H2    4.1E3 3.2 8.755E3
![8,20]
CH4+O=CH3+OH    4.4E5 2.5 6.577E3
![20,30]
CH4+OH=CH3+H2O    1.0E6 2.2 2.506E3
![8,20]
CH4+HO2=CH3+H2O2    4.7E4 2.5 2.1E4
![31,32]
CH4+CH2=2CH3    4.3E12 0.0 1.003E4
![7,31]
CH4+CH2(S)=2CH3    4.3E13 0.0 0.0E0
![33]
CH2+H(+M)=CH3(+M)    3.8E16 -0.8 0.0E0
    N2/1.0/
    H2O/6.0/
    LOW/4.8E27 -3.14E0 1.23E3/
    TROE/6.8E-1 7.8E1 1.995E3 5.59E3/
![31,34]
CH3+H=CH2+H2    9.0E13 0.0 1.51E4
![26,31]
CH2(S)+H2=CH3+H    7.2E13 0.0 0.0E0
![8,20,35]
CH3+O=CH2O+H    6.9E13 0.0 0.0E0
![8,20,35]
CH3+O=H2+CO+H    1.5E13 0.0 0.0E0
![36]
CH3+OH=CH2+H2O    1.1E3 3.0 2.78E3
![37]
CH3+OH=CH2(S)+H2O    4.4E13 -0.3 -7.27E2
![20,38]
CH3+HO2=CH4+O2    1.8E3 2.8 -3.73E3
![20,39]
CH3+HO2=CH3O+OH    2.0E13 0.0 1.075E3
![20,30]
CH3+O2=CH3O+O    7.5E12 0.0 2.8297E4
![20,30]
CH3+O2=CH2O+OH    1.9E11 0.0 9.842E3
![20,40]
CH3+HCO=CH4+CO    2.8E13 0.0 0.0E0
![8,20]
2CH3=C2H5+H    5.4E13 0.0 1.6055E4
![41]
CH2+M=CH+H+M    5.6E15 0.0 8.9E4
![41]
CH2+M=C+H2+M    5.8E12 0.5 6.85E4
![8]
CH2+H=CH+H2    1.2E14 0.0 0.0E0
![8]
CH2+O=CO+2H    1.2E14 0.0 5.36E2
![8]
CH2+O=CO+H2    8.0E13 0.0 5.36E2
![42]
CH2+OH=CH2O+H    2.8E13 0.1 -1.61E2
![42]
CH2+OH=CH+H2O    8.6E5 2.0 6.776E3
![8]
CH2+O2=CO+H2O    1.8E11 0.0 0.0E0
![8]
CH2+O2=CO2+2H    3.8E11 0.0 0.0E0
![8]
CH2+O2=CH2O+O    2.9E11 0.0 0.0E0
![8]
CH2+O2=CO2+H2    3.4E11 0.0 0.0E0
![8]
CH2+O2=CO+OH+H    6.1E11 0.0 0.0E0
![31,34]
CH2+CO2=CO+CH2O    1.0E11 0.0 1.0E3
![31]
CH2(S)+M=CH2+M    1.0E13 0.0 0.0E0
    N2/0.0/
    H2O/0.0/
    H/0.0/
![31,43]
CH2(S)+N2=CH2+N2    1.3E13 0.0 4.3E2
![31]
CH2(S)+H=CH2+H    2.0E14 0.0 0.0E0
![7,31]
CH2(S)+H=CH+H2    3.0E13 0.0 0.0E0
![7,31]
CH2(S)+O=CO+2H    3.0E13 0.0 0.0E0
![7,31]
CH2(S)+OH=CH2O+H    3.0E13 0.0 0.0E0
![8]
CH2(S)+O2=CH2+O2    3.1E13 0.0 0.0E0
![31,44,45]
CH2(S)+H2O=CH2+H2O    3.0E13 0.0 0.0E0
![46,47]
CH2(S)+CO2=CH2O+CO    1.1E13 0.0 0.0E0
![31]
CH+H=C+H2    1.5E14 0.0 0.0E0
![31,48]
CH+O=CO+H    5.7E13 0.0 0.0E0
![31]
CH+OH=HCO+H    3.0E13 0.0 0.0E0
![31]
CH+OH=C+H2O    4.0E7 2.0 3.0E3
![26,31]
CH+O2=HCO+O    3.3E13 0.0 0.0E0
![26,31]
CH+H2O=CH2O+H    5.7E12 0.0 -7.55E2
![46]
CH+CO2=HCO+CO    8.8E6 1.8 -1.04E3
![31]
C+OH=CO+H    5.0E13 0.0 0.0E0
![31,49]
C+O2=CO+O    2.0E13 0.0 0.0E0
![50,52]
CH2OH(+M)=CH2O+H(+M)    2.8E14 -0.7 3.282E4
    H2/2.0/
    H2O/5.0/
    CO/2.0/
    CO2/3.0/
    LOW/6.01E33 -5.39E0 3.62E4/
    TROE/9.6E-1 6.76E1 1.855E3 7.543E3/
![53]
CH2OH+H=CH2O+H2    4.0E6 1.9 1.47E2
![53]
CH2OH+H=CH3+OH    1.8E14 0.2 1.11E2
![50,54]
CH2OH+O=CH2O+OH    6.6E13 0.0 -6.93E2
![50,55]
CH2OH+OH=CH2O+H2O    2.4E13 0.0 0.0E0
![50,55]
CH2OH+HO2=CH2O+H2O2    1.2E13 0.0 0.0E0
![8,50]
CH2OH+O2=CH2O+HO2    7.2E13 0.0 3.736E3
    DUP
![8,50]
CH2OH+O2=CH2O+HO2    2.9E16 -1.5 0.0E0
    DUP
![50,55,56]
CH2OH+HCO=2CH2O    1.5E13 0.0 0.0E0
![50,57]
CH3O(+M)=CH2O+H(+M)    6.8E13 0.0 2.6154E4
    LOW/1.867E25 -3.0E0 2.4291E4/
    TROE/5.0E-1 1.0E3 2.0E3/
![53]
CH3O+H=CH2O+H2    7.6E8 1.5 -5.19E2
![53]
CH3O+H=CH3+OH    4.6E13 0.3 2.8E1
![50,59]
CH3O+O=CH2O+OH    3.8E12 0.0 0.0E0
![7,50]
CH3O+OH=CH2O+H2O    1.8E13 0.0 0.0E0
![7,50]
CH3O+HO2=CH2O+H2O2    3.0E11 0.0 0.0E0
![50,60]
CH3O+O2=CH2O+HO2    2.2E10 0.0 1.749E3
![50,61]
CH3O+CO=CH3+CO2    9.5E25 -4.9 9.08E3
![7,20]
CH3O+CH3=CH2O+CH4    2.4E13 0.0 0.0E0
![65,66]
C2H4+H(+M)=C2H5(+M)    1.4E9 1.5 1.355E3
    LOW/2.0E39 -6.642E0 5.769E3/
    TROE/-5.69E-1 2.99E2 9.147E3 1.524E2/
![20,68]
C2H5+O=CH3+CH2O    4.2E13 0.0 0.0E0
![20,68]
C2H5+O=C2H4+OH    3.1E13 0.0 0.0E0
![7,20]
C2H5+OH=C2H4+H2O    2.4E13 0.0 0.0E0
![20,69]
C2H5+HO2=CH3CH2O+OH    3.1E13 0.0 0.0E0
![20,70]
C2H5+O2=C2H4+HO2    1.4E7 1.1 -1.975E3
![8,20]
C2H5+CH3=C2H4+CH4    9.0E11 0.0 0.0E0
![66,73]
C2H4(+M)=H2CC+H2(+M)    8.0E12 0.4 8.88E4
    H2O/6.0/
    LOW/7.0E50 -9.31E0 9.99E4/
    TROE/7.35E-1 1.8E2 1.035E3 5.417E3/
![26]
CH4+CH=C2H4+H    3.0E13 0.0 -4.0E2
![42]
CH3+CH2=C2H4+H    1.2E15 -0.3 1.53E2
![7,31]
CH3+CH2(S)=C2H4+H    2.0E13 0.0 0.0E0
![8,20,74]
C2H4+O=CH3+HCO    3.9E12 0.0 1.494E3
    DUP
C2H4+O=CH3+HCO    6.2E13 0.0 6.855E3
    DUP
![8,50,74]
C2H4+O=CH2CHO+H    1.7E12 0.0 1.494E3
    DUP
C2H4+O=CH2CHO+H    2.8E13 0.0 6.855E3
    DUP
![66,75]
C2H4+OH=CH3+CH2O    3.2E1 2.7 -1.172E3
![8,66]
C2H4+HO2=cC2H4O+OH    2.2E12 0.0 1.72E4
![7,31]
C2H2+M=C2H+H+M    9.1E30 -3.7 1.27138E5
    H2/2.0/
    CO/2.0/
    CO2/3.0/
    H2O/5.0/
![31]
CH3+C=C2H2+H    5.0E13 0.0 0.0E0
![31]
CH2+CH=C2H2+H    4.0E13 0.0 0.0E0
![42]
2CH2=C2H2+2H    7.0E13 0.0 8.0E0
![42]
2CH2=C2H2+H2    1.8E13 0.0 8.0E0
![31]
C2H2+O=CH2+CO    6.1E6 2.0 1.9E3
![31,34]
C2H2+O=C2H+OH    3.2E15 -0.6 1.5E4
![81]
C2H2+OH=CH3+CO    1.3E9 0.7 2.579E3
![50,82]
C2H2+HO2=CH2O+HCO    3.0E12 0.0 1.0E4
![50,82]
C2H2+HO2=CH2CHO+O    3.0E12 0.0 1.0E4
![83]
C2H2+O2=2HCO    2.2E7 1.5 3.31E4
![84]
C2H2+CH2(S)=C2H2+CH2    4.0E13 0.0 0.0E0
!JAM
H2CC=C2H2    1.0E7 0.0 0.0E0
![85]
H2CC+H=C2H2+H    1.0E14 0.0 0.0E0
!JAM   est
H2CC+O2=CH2+CO2    1.0E13 0.0 0.0E0
![31]
CH2+C=C2H+H    5.0E13 0.0 0.0E0
![31]
C2H+O=CH+CO    5.0E13 0.0 0.0E0
![31,86]
C2H+H2=C2H2+H    4.1E5 2.4 8.64E2
![87]
C2H+O2=2CO+H    4.7E13 -0.2 0.0E0
![31,88]
C2H+CH4=CH3+C2H2    7.2E12 0.0 9.76E2
![20,75]
CH2CHO=CH3+CO    1.2E30 -6.1 4.1332E4
![20,31]
CH2CHO+H=CH3+HCO    1.0E14 0.0 0.0E0
![20,31]
CH2CHO+H=CH3CO+H    3.0E13 0.0 0.0E0
![20,31]
CH2CHO+OH=CH2OH+HCO    1.0E13 0.0 0.0E0
![20,93]
CH2CHO+O2=CH2O+CO+OH    5.7E17 -1.8 1.1067E4
![20,94]
CH2CHO+CH3=C2H5+CO+H    4.9E14 -0.5 0.0E0
![20,92]
CH2CHO+HO2=CH2O+HCO+OH    7.0E12 -0.5 0.0E0
!JAM   est
CH2CHO+CH2=C2H4+HCO    5.0E13 0.0 0.0E0
![20,75]
CH3CO=CH3+CO    6.9E14 -2.0 1.4584E4
![20,95,96]
CH3CO+H=CH3+HCO    2.1E13 0.0 0.0E0
![8,20]
CH3CO+O=CH3+CO2    1.6E14 0.0 0.0E0
![20]
CH3CO+O2=CH2O+CO+OH    1.9E12 0.0 0.0E0
![109,110]
HNO+H=NO+H2    4.4E11 0.7 6.5E2
![109,111]
HNO+O=NO+OH    2.3E13 0.0 0.0E0
![109,112]
HNO+OH=NO+H2O    3.6E13 0.0 0.0E0
![109,113]
HNO+O2=HO2+NO    2.0E13 0.0 1.6E4
![109,114]
2HNO=N2O+H2O    9.0E8 0.0 3.1E3
![50,115]
HNO+NO2=HONO+NO    4.4E4 2.6 4.04E3
![50,114]
NO+H(+M)=HNO(+M)    1.5E15 -0.4 0.0E0
    N2/1.6/
    LOW/2.4E14 2.06E-1 -1.55E3/
    TROE/8.2E-1 1.0E-30 1.0E30 1.0E30/
![1,50,114,116]
NO+O(+M)=NO2(+M)    1.3E15 -0.8 0.0E0
    LOW/4.72E24 -2.87E0 1.55E3/
    TROE/8.8E-1 1.0E3 1.0E4 1.0E30/
![50,117]
NO+OH(+M)=HONO(+M)    1.1E14 -0.3 0.0E0
    LOW/3.392E23 -2.5E0 0.0E0/
    TROE/7.5E-1 1.0E-30 1.0E30 1.0E30/
![8,50]
NO+HO2=NO2+OH    2.1E12 0.0 -4.97E2
![50,118]
NO2+H=NO+OH    1.3E14 0.0 3.62E2
![50,119]
NO2+O=NO+O2    1.1E14 -0.5 0.0E0
![1]
NO2+HO2=HONO+O2    1.9E0 3.3 3.044E3
![1,122]
NO2+H2=HONO+H    1.3E4 2.8 2.977E4
![1,122]
2NO2=2NO+O2    4.5E12 0.0 2.7599E4
![109,123]
HONO+H=HNO+OH    5.6E10 0.9 5.0E3
![109,123]
HONO+H=NO+H2O    8.1E6 1.9 3.85E3
![109,114]
HONO+O=NO2+OH    1.2E13 0.0 5.96E3
![1,124]
HONO+OH=NO2+H2O    1.7E12 0.0 -5.2E2
![1,125]
2HONO=NO+NO2+H2O    3.5E-1 3.6 1.214E4
![109,131,132]
N2O(+M)=N2+O(+M)    1.3E12 0.0 6.257E4
    N2/1.7/
    O2/1.4/
    CO2/3.0/
    H2O/12.0/
    LOW/4.0E14 0.0E0 5.66E4/
![109,133]
N2O+H=N2+OH    3.3E10 0.0 4.729E3
    DUP
N2O+H=N2+OH    4.4E14 0.0 1.9254E4
    DUP
![109,134]
N2O+O=2NO    9.2E13 0.0 2.7679E4
![109,134]
N2O+O=N2+O2    3.7E12 0.0 1.5936E4
![109,135]
N2O+OH=N2+HO2    1.3E-2 4.7 3.656E4
![109,135]
N2O+OH=HNO+NO    1.2E-4 4.3 2.508E4
![109,135]
N2O+NO=NO2+N2    5.3E5 2.2 4.628E4
![109,136]
NH3+M=NH2+H+M    2.2E16 0.0 9.347E4
![109,137]
NH3+H=NH2+H2    6.4E5 2.4 1.0171E4
![109,138]
NH3+O=NH2+OH    9.4E6 1.9 6.46E3
![109]
NH3+OH=NH2+H2O    2.0E6 2.0 5.66E2
![109]   JAM   est
NH3+HO2=NH2+H2O2    3.0E11 0.0 2.2E4
![109,139]
NH2+H=NH+H2    7.2E5 2.3 7.99E2
![111,140,141]
NH2+O=HNO+H    6.6E13 0.0 0.0E0
![111,140,141]
NH2+O=NH+OH    7.0E12 0.0 0.0E0
    DUP
![142]
NH2+O=NH+OH    8.6E-1 4.0 1.673E3
    DUP
![109]   JAM   est
NH2+OH=NH+H2O    4.0E6 2.0 1.0E3
![109]   JAM   est
NH2+HO2=H2NO+OH    5.0E13 0.0 0.0E0
![109,113]
NH2+HO2=NH3+O2    9.2E5 1.9 -1.152E3
![109,113]
NH2+O2=H2NO+O    2.5E11 0.5 2.9586E4
![109,113]
NH2+O2=HNO+OH    6.2E7 1.2 3.51E4
![109,136]
2NH2=NH3+NH    5.0E13 0.0 1.0E4
![109,113]
NH2+NH=NH3+N    9.2E5 1.9 2.444E3
![109,143]
NH2+N=N2+2H    7.0E13 0.0 0.0E0
![109,135]
NH2+HNO=NH3+NO    3.6E6 1.6 -1.25E3
![109,144]
NH2+NO=N2+H2O    2.8E20 -2.7 1.258E3
![109,144]
NH2+NO=NNH+OH    2.3E10 0.4 -8.14E2
![109,135]
NH2+HONO=NH3+NO2    7.1E1 3.0 -4.94E3
![109,145]
NH2+NO2=N2O+H2O    1.6E16 -1.4 2.68E2
![109,145]
NH2+NO2=H2NO+NO    6.5E16 -1.4 2.68E2
![109,136]
NH+H=N+H2    3.0E13 0.0 0.0E0
![109,146]
NH+O=NO+H    9.2E13 0.0 0.0E0
![109]   JAM   est
NH+OH=HNO+H    2.0E13 0.0 0.0E0
![109]   JAM   est
NH+OH=N+H2O    5.0E11 0.5 2.0E3
![109,147]
NH+O2=HNO+O    4.6E5 2.0 6.5E3
![109,147]
NH+O2=NO+OH    1.3E6 1.5 1.0E2
![109]   JAM   est
2NH=N2+2H    2.5E13 0.0 0.0E0
![109]   JAM   est
NH+N=N2+H    3.0E13 0.0 0.0E0
![109,147]
NH+NO=N2O+H    2.9E14 -0.4 0.0E0
    DUP
NH+NO=N2O+H    -2.2E13 -0.2 0.0E0
    DUP
![109,147]
NH+NO=N2+OH    2.2E13 -0.2 0.0E0
![109]   JAM   est
NH+HONO=NH2+NO2    1.0E13 0.0 0.0E0
![109,148]
NH+NO2=N2O+OH    1.0E13 0.0 0.0E0
![109,149,150]
N+OH=NO+H    3.8E13 0.0 0.0E0
![109,112]
N+O2=NO+O    6.4E9 1.0 6.28E3
![8]
N+NO=N2+O    2.1E13 0.0 0.0E0
![109,144]
NNH=N2+H    6.5E7 0.0 0.0E0
![109]   JAM   est
NNH+H=N2+H2    1.0E14 0.0 0.0E0
![109]   JAM   est
NNH+O=N2O+H    1.0E14 0.0 0.0E0
![109]   JAM   est
NNH+O=N2+OH    8.0E13 0.0 0.0E0
![109,147]
NNH+O=NH+NO    5.0E13 0.0 0.0E0
![109]   JAM   est
NNH+OH=N2+H2O    5.0E13 0.0 0.0E0
![109,144]
NNH+O2=N2+HO2    2.0E14 0.0 0.0E0
![109,144]
NNH+O2=N2+H+O2    5.0E13 0.0 0.0E0
![109]   JAM   est
NNH+NH=N2+NH2    5.0E13 0.0 0.0E0
![109]   JAM   est
NNH+NH2=N2+NH3    5.0E13 0.0 0.0E0
![109]JAM   eat
NNH+NO=N2+HNO    5.0E13 0.0 0.0E0
![109,113]
H2NO+M=HNO+H+M    2.8E24 -2.8 6.4915E4
    H2O/10.0/
![109]   JAM   est
H2NO+H=HNO+H2    3.0E7 2.0 2.0E3
![109]   JAM   est
H2NO+H=NH2+OH    5.0E13 0.0 0.0E0
![109]   JAM   est
H2NO+O=HNO+OH    3.0E7 2.0 2.0E3
![156]
H2NO+OH=HNO+H2O    1.0E14 0.0 0.0E0
![109,113]
H2NO+HO2=HNO+H2O2    2.9E4 2.7 -1.6E3
![109]   JAM   est
H2NO+O2=HNO+HO2    3.0E12 0.0 2.5E4
![109]   JAM   est
H2NO+NH2=HNO+NH3    3.0E12 0.0 1.0E3
![109]   JAM   est
H2NO+NO=2HNO    2.0E4 2.0 1.3E4
![109]   JAM   est
H2NO+NO2=HONO+HNO    6.0E11 0.0 2.0E3
![113,157]
HNC+O=NH+CO    4.6E12 0.0 2.2E3
![113,157]
HNC+OH=HNCO+H    2.8E13 0.0 3.7E3
![157,166]
HNCO+M=CO+NH+M    1.1E16 0.0 8.6E4
    N2/1.5/
![8,157]
HNCO+H=NH2+CO    3.6E4 2.5 2.345E3
![8,157,159]
HNCO+O=NH+CO2    9.6E7 1.4 8.52E3
![157,167]
HNCO+O=HNO+CO    1.5E8 1.6 4.4012E4
![157,168]
HNCO+O2=HNO+CO2    1.0E12 0.0 3.5E4
![31,114]
CO+NO2=NO+CO2    9.0E13 0.0 3.38E4
![109,114]
CO+N2O=N2+CO2    2.7E11 0.0 2.0237E4
![181,182]
CH2O+NO2=HONO+HCO    1.4E-7 5.6 9.22E3
![181,183]
HCO+NO=HNO+CO    6.9E12 0.0 0.0E0
![181,183]   70%
HCO+NO2=NO+CO2+H    2.3E13 0.0 0.0E0
![181,183]   15%
HCO+NO2=HONO+CO    5.0E12 0.0 0.0E0
![181,183]   15%
HCO+NO2=NO+CO+OH    5.0E12 0.0 0.0E0
![181,184]
HCO+HNO=NO+CH2O    5.8E-1 3.8 1.15E2
![181,185]
CH4+NO2=HONO+CH3    6.5E14 0.0 4.58E4
![181,186]
CH3+NO(+M)=CH3NO(+M)    9.0E12 0.0 1.92E2
    LOW/2.5E16 0.0E0 -2.841E3/
    TROE/5.0E0 1.0E-30 1.2E2 1.0E30/
![46,187]
CH3+NO2=CH3O+NO    1.1E13 0.0 0.0E0
![181,188]
CH3+HNO=NO+CH4    2.3E14 0.0 8.4E3
![181,189]
CH3O+NO=HNO+CH2O    7.5E12 0.0 2.017E3
    DUP
CH3O+NO=HNO+CH2O    2.5E18 -2.6 0.0E0
    DUP
![181,191]
CH2OH+NO=CH2O+HNO    1.3E12 0.0 0.0E0
![181,191]
CH2OH+NO2=HONO+CH2O    5.0E12 0.0 0.0E0
![181]
C2H5+NO2=NO+CH3CH2O    4.0E13 -0.2 0.0E0
![194]
CH3CO+NO2=>CH3+CO2+NO    1.5E13 0.0 0.0E0
![197]
CH4+NH2=CH3+NH3    1.5E3 3.0 9.94E3
![113]  this  work
CH3+NH2=CH2NH2+H    1.1E13 -0.1 9.905E3
![113]  this  work
CH3+NH2=CH4+NH    2.8E6 1.9 9.21E3
![113]  this  work
CH3+NH2=CH2+NH3    1.6E6 1.9 7.57E3
![113]  this  work
CH3+NH=N+CH4    8.2E5 1.9 5.852E3
![31,200]
CH3+N=H2CN+H    7.1E13 0.0 0.0E0
![31]
CH3+NO=H2CN+OH    1.5E-1 3.5 3.95E3
![113]  this  work
CH3+H2NO=CH3O+NH2    2.0E13 0.0 0.0E0
![113]  this  work
CH3+H2NO=CH4+HNO    1.6E6 1.9 2.961E3
![31,203]
CH2+NO2=CH2O+NO    5.9E13 0.0 0.0E0
![31,146]
CH2(S)+NO=CH2+NO    1.0E14 0.0 0.0E0
![47]
CH2(S)+N2O=CH2O+N2    3.8E13 0.0 0.0E0
!this  work   est
CH2(S)+NH3=CH2NH2+H    1.0E14 0.0 0.0E0
![204]  this  work
CH+NH3=H2CN+2H    4.4E13 0.0 -6.3E2
!this  work   est
CH+NH2=H2CN+H    3.0E13 0.0 0.0E0
![8]
CH+NO=CO+NH    9.1E12 0.0 0.0E0
![8]
CH+NO=HCO+N    6.8E12 0.0 0.0E0
![31,205,206]
CH+NO2=HCO+NO    1.0E14 0.0 0.0E0
![31,146]
C+NO=CO+N    2.8E13 0.0 0.0E0
![211]
C2H5+N=C2H4+NH    4.3E13 0.0 0.0E0
![211]
C2H5+N=CH3+H2CN    2.3E13 0.0 0.0E0
![215]
C2H+NH3=C2H2+NH2    7.2E12 0.0 -7.35E2
![113]  this  work
CH2NH2+O=CH2O+NH2    7.0E13 0.0 0.0E0
![113]  this  work
CH2NH2+OH=CH2OH+NH2    4.0E13 0.0 0.0E0
![113]  this  work
CH2NH2+CH3=C2H5+NH2    2.0E13 0.0 2.702E3
![113,157]
H2CN+O2=CH2O+NO    3.0E12 0.0 5.961E3
![31]   JAM   est
H2CN+N=CH2+N2    2.0E13 0.0 0.0E0
END
