ELEMENTS
C H N O AR 
HE 
END
SPECIES
AR HE H2 H O2 
O H2O OH OHV H2O2 
HO2 CO CO2 CH4 CH3 
CH2 CH2(S) C CH CH3O2H 
CH3O2 CH3OH CH3O CH2OH CH2O 
HCO HCOH HO2CHO HOCH2O O2CHO 
HOCHO OCHO C2H6 C2H5 C2H5O2H 
C2H5O2 C2H4 C2H3 CHOCHO CHCHO 
C2H2 H2CC C2H5OH C2H5O PC2H4OH 
SC2H4OH O2C2H4OH C2H4O1-2 C2H3O1-2 CH3CHO 
CH3CO CH2CHO C2H3OH CH2CO HCCO 
CH3CO3H CH3CO3 CH3CO2 CH3OCH3 CH3OCH2O2 
HO2CH2OCHO OCH2OCHO HOCH2OCO C3H8 NC3H7 
C3H6 C3H6OH2-1 IC3H7O CH3COCH3 CH3COCH2 
CH3COCH2O2 CH3COCH2O C3KET21 TC4H9O DTBP
N2 
END

REACTIONS MOLES CAL/MOLE
CH3OH+CH3=CH2OH+CH4    3.192E1 3.2 7.168E3
CH3OH+CH3=CH3O+CH4    3.22E3 2.425 8.5795E3
CH3OH+H=CH2OH+H2    1.7E7 2.1 4.87E3
CH3O2+H2O2=CH3O2H+HO2    2.41E12 0.0 9.936E3
CH3+O2(+M)=CH3O2(+M)    7.812E9 0.9 0.0E0
    LOW/6.85E24 -3.0E0 0.0E0/
    TROE/6.0E-1 1.0E3 7.0E1 1.7E3/
CH3O2+OH=CH3OH+O2    2.5169E14 0.0 0.0E0
CH3COCH3+CH3O=CH3COCH2+CH3OH    4.34E11 0.0 6.46E3
2CH3O=CH3OH+CH2O    6.03E13 0.0 0.0E0
CH3O+O2=CH2O+HO2    9.033E13 0.0 1.198E4
    DUP
CH3O+O2=CH2O+HO2    2.2E10 0.0 1.748E3
    DUP
CH3O+M=CH2O+H+M    8.3E17 -1.2 1.55E4
CH3OH+HCO=CH3O+CH2O    1.21E-3 4.34 2.30461E4
    DUP
CH3OH+HCO=CH3O+CH2O    -7.243E6 1.867 4.29734E4
    DUP
2CH3O2=>CH2O+CH3OH+O2    2.8E9 0.0 -2.2E3
2CH3O2=>O2+2CH3O    4.4563E11 0.0 1.0328E3
CH3OH+O2=HO2+CH3O    2.5E12 0.0 5.5E4
CH3OH+HO2=CH3O+H2O2    3.34E-2 4.12 1.6235E4
CH3OH+HO2=CH2OH+H2O2    1.08E4 2.5 1.053E4
H2O2(+M)=2OH(+M)    2.0E12 0.9 4.8749E4
    H2O/7.65/
    CO2/1.6/
    O2/1.2/
    HE/0.65/
    H2O2/7.7/
    H2/3.7/
    CO/2.8/
    LOW/2.49E24 -2.3E0 4.8749E4/
    TROE/4.3E-1 1.0E-30 1.0E30/
CH2O+HO2=HCO+H2O2    1.88E4 2.7 1.151498E4
CH3OH+OH=CH2OH+H2O    3.08E4 2.65 -8.0634E2
CH3O2+H=CH3O+OH    1.0E14 0.0 0.0E0
CH2O+H=HCO+H2    3.3E14 0.0 1.05E4
CH2O+OH=HCO+H2O    1.94E6 2.11 -1.6864E3
CH3O2+HO2=CH3O2H+O2    2.47E11 0.0 -1.57E3
2CH3(+M)=C2H6(+M)    6.77E16 -1.18 6.5371E2
    CH4/2.0/
    C2H6/3.0/
    H2O/6.0/
    AR/0.7/
    CO/1.5/
    CO2/2.0/
    H2/2.0/
    LOW/3.4E41 -7.03E0 2.76078E3/
    TROE/6.19E-1 7.32E1 1.18E3 9.999E3/
CH3+HO2=CH3O+OH    2.41E10 0.76 -2.32397E3
CH2O+CH3O2=HCO+CH3O2H    4.1E4 2.5 1.0206E4
H2+CH3O2=H+CH3O2H    3.01E13 0.0 2.6019E4
H+O2(+M)=HO2(+M)    4.65E12 0.44 0.0E0
    H2/1.3/
    CO/1.9/
    CO2/3.8/
    HE/0.64/
    H2O/10.0/
    AR/0.5/
    CH4/2.0/
    C2H6/3.0/
    LOW/1.737E19 -1.23E0 0.0E0/
    TROE/6.7E-1 1.0E-30 1.0E30 1.0E30/
HCO+M=H+CO+M    4.7485E11 0.659 1.4874E4
    H2/2.5/
    H2O/12.0/
    CO/1.9/
    CO2/3.8/
HCO+O2=CO+HO2    7.58E12 0.0 4.1E2
CH4+OH=CH3+H2O    5.83E4 2.6 2.19E3
CH3O2+CH4=CH3+CH3O2H    1.8066E11 0.0 1.8472E4
CH3+HO2=CH4+O2    1.8E3 2.8 -3.73E3
CH3COCH3+CH3=CH3COCH2+CH4    3.96E11 0.0 9.784E3
CH3COCH3+H=CH3COCH2+H2    2.3E7 2.0 5.0E3
CH3COCH3+OH=CH3COCH2+H2O    9.0E-2 4.43 1.5712E3
CH3O2+CH3=2CH3O    3.8E12 0.0 -1.2E3
C2H6+OH=C2H5+H2O    1.48E7 1.9 9.5E2
C2H6+H=C2H5+H2    1.15E8 1.9 7.53E3
C2H6+CH3=C2H5+CH4    5.55E-4 4.72 3.231E3
CH3O2H=CH3O+OH    6.31E14 0.0 4.23E4
CO+HO2=CO2+OH    1.57E5 2.18 1.794E4
CO+O(+M)=CO2(+M)    1.362E10 0.0 2.384E3
    H2/2.0/
    H2O/12.0/
    CO/1.75/
    CO2/3.6/
    AR/0.7/
    HE/0.7/
    LOW/1.173E24 -2.79E0 4.191E3/
CO+OH=CO2+H    7.015E4 2.053 -3.557E2
    DUP
CO+OH=CO2+H    5.757E12 -0.664 3.318E2
    DUP
O2+H=O+OH    1.04E14 0.0 1.5286E4
H2+M=2H+M    4.577E19 -1.4 1.044E5
    H2/2.5/
    H2O/12.0/
    CO/1.9/
    CO2/3.8/
    HE/0.83/
    CH4/2.0/
    C2H6/3.0/
H2+O=H+OH    5.08E4 2.67 6.292E3
H2+OH=H+H2O    4.38E13 0.0 6.99E3
2O+M=O2+M    6.165E15 -0.5 0.0E0
    H2/2.5/
    H2O/12.0/
    AR/0.83/
    CO/1.9/
    CO2/3.8/
    HE/0.83/
    CH4/2.0/
    C2H6/3.0/
H+OH+M=H2O+M    3.5E22 -2.0 0.0E0
    H2/0.73/
    H2O/3.65/
    CH4/2.0/
    C2H6/3.0/
    AR/0.38/
O+H2O=2OH    6.7E7 1.704 1.49868E4
O+H+M=OH+M    4.714E18 -1.0 0.0E0
    H2/2.5/
    H2O/12.0/
    AR/0.75/
    CO/1.5/
    CO2/2.0/
    HE/0.75/
    CH4/2.0/
    C2H6/3.0/
H+O+M=OHV+M    1.5E13 0.0 5.975E3
    H2/1.0/
    H2O/6.5/
    O2/0.4/
    AR/0.35/
OHV+H2O=OH+H2O    5.93E12 0.5 -8.6E2
OHV+H2=OH+H2    2.95E12 0.5 -4.44E2
OHV+OH=2OH    6.01E12 0.5 -7.64E2
OHV+H=OH+H    1.31E12 0.5 -1.67E2
OHV+AR=OH+AR    1.69E12 0.0 4.135E3
OHV=OH    1.45E6 0.0 0.0E0
OHV+O2=OH+O2    2.1E12 0.5 -4.78E2
OHV+CO2=OH+CO2    2.75E12 0.5 -9.68E2
OHV+CO=OH+CO    3.23E12 0.5 -7.87E2
OHV+CH4=OH+CH4    3.36E12 0.5 -6.35E2
H2O2+H=H2O+OH    2.41E13 0.0 3.97E3
H2O2+H=H2+HO2    2.15E10 1.0 6.0E3
H2O2+O=OH+HO2    9.55E6 2.0 3.97E3
H2O2+OH=H2O+HO2    1.74E12 0.0 3.18E2
    DUP
H2O2+OH=H2O+HO2    7.59E13 0.0 7.269E3
    DUP
HO2+H=2OH    7.079E13 0.0 2.95E2
HO2+H=H2+O2    1.1402E10 1.0827 5.5378E2
HO2+O=OH+O2    3.25E13 0.0 0.0E0
HO2+OH=H2O+O2    2.456E13 0.0 -4.97E2
2HO2=H2O2+O2    1.0E14 0.0 1.1040883E4
    DUP
2HO2=H2O2+O2    1.9E11 0.0 -1.4089248E3
    DUP
CO+O2=CO2+O    1.119E12 0.0 4.77E4
H+CO2=OCHO    7.5E13 0.0 2.9E4
CH3+H(+M)=CH4(+M)    1.27E16 -0.63 3.83E2
    H2/2.0/
    H2O/6.0/
    AR/0.7/
    CO/1.5/
    CO2/2.0/
    CH4/2.0/
    C2H6/3.0/
    HE/0.7/
    LOW/2.477E33 -4.76E0 2.44E3/
    TROE/7.83E-1 7.4E1 2.941E3 6.964E3/
CH4+H=CH3+H2    6.14E5 2.5 9.587E3
CH4+O=CH3+OH    1.02E9 1.5 8.6E3
CH4+HO2=CH3+H2O2    1.13E1 3.74 2.101E4
CH4+CH2=2CH3    2.46E6 2.0 8.27E3
CH2(S)+AR=CH2+AR    9.0E12 0.0 6.0E2
CH2(S)+H2O=CH2+H2O    3.0E13 0.0 0.0E0
CH2(S)+CO=CH2+CO    9.0E12 0.0 0.0E0
CH2(S)+CO2=CH2+CO2    7.0E12 0.0 0.0E0
CH2(S)+O2=>H+OH+CO    2.8E13 0.0 0.0E0
CH2(S)+O2=CO+H2O    1.2E13 0.0 0.0E0
CH2(S)+O=CO+H2    1.5E13 0.0 0.0E0
CH2(S)+O=HCO+H    1.5E13 0.0 0.0E0
CH2(S)+H2=CH3+H    7.0E13 0.0 0.0E0
CH2(S)+H=CH+H2    3.0E13 0.0 0.0E0
CH2(S)+OH=CH2O+H    3.0E13 0.0 0.0E0
CH2(S)+CO2=CH2O+CO    1.4E13 0.0 0.0E0
CH2+H(+M)=CH3(+M)    2.5E16 -0.8 0.0E0
    H2/2.0/
    H2O/6.0/
    AR/0.7/
    CO/1.5/
    CO2/2.0/
    CH4/2.0/
    C2H6/3.0/
    HE/0.7/
    LOW/3.2E27 -3.14E0 1.23E3/
    TROE/6.8E-1 7.8E1 1.995E3 5.59E3/
CH2+O2=HCO+OH    1.06E13 0.0 1.5E3
CH2+O2=>CO2+2H    2.64E12 0.0 1.5E3
CH2+O=>CO+2H    5.0E13 0.0 0.0E0
CH2+H=CH+H2    3.0E13 0.0 0.0E0
CH2+OH=CH+H2O    1.13E7 2.0 3.0E3
CH+O2=CO+OHV    4.04E13 0.0 0.0E0
CH+O2=HCO+O    3.3E13 0.0 0.0E0
CH+O=CO+H    5.7E13 0.0 0.0E0
CH+H=C+H2    1.1E14 0.0 0.0E0
CH+OH=HCO+H    3.0E13 0.0 0.0E0
CH+H2O=H+CH2O    1.774E16 -1.22 2.38E1
CH+CO2=HCO+CO    1.7E12 0.0 6.85E2
C+OH=CO+H    5.0E13 0.0 0.0E0
C+O2=CO+O    5.0E13 0.0 0.0E0
CH3+O2=CH3O+O    7.546E12 0.0 2.832E4
CH3+O2=CH2O+OH    2.641E0 3.283 8.105E3
CH3+O=CH2O+H    5.54E13 0.05 -1.36E2
CH3+OH=CH2(S)+H2O    4.936E14 -0.669 -4.458E2
    PLOG/1.0E-2 4.936E14 -6.69E-1 -4.458E2/
    PLOG/1.0E-1 1.207E15 -7.78E-1 -1.756E2/
    PLOG/1.0E0 5.282E17 -1.518E0 1.772E3/
    PLOG/1.0E1 4.788E23 -3.155E0 7.003E3/
    PLOG/1.0E2 8.433E19 -1.962E0 8.244E3/
CH3+OH=CH2O+H2    3.502E5 1.441 -3.244E3
    PLOG/1.0E-2 3.502E5 1.441E0 -3.244E3/
    PLOG/1.0E-1 8.854E5 1.327E0 -2.975E3/
    PLOG/1.0E0 1.65E7 9.73E-1 -2.01E3/
    PLOG/1.0E1 5.374E9 2.87E-1 2.8E2/
    PLOG/1.0E2 9.494E18 -2.199E0 9.769E3/
CH3+OH=CH2OH+H    1.621E10 0.965 3.21E3
    PLOG/1.0E-2 1.621E10 9.65E-1 3.214E3/
    PLOG/1.0E-1 1.807E10 9.5E-1 3.247E3/
    PLOG/1.0E0 4.686E10 8.33E-1 3.566E3/
    PLOG/1.0E1 1.525E13 1.34E-1 5.641E3/
    PLOG/1.0E2 3.59E14 -1.86E-1 8.601E3/
CH3+OH=H+CH3O    1.186E9 1.016 1.194E4
    PLOG/1.0E-2 1.186E9 1.016E0 1.194E4/
    PLOG/1.0E-1 1.188E9 1.016E0 1.194E4/
    PLOG/1.0E0 1.23E9 1.011E0 1.195E4/
    PLOG/1.0E1 1.798E9 9.65E-1 1.206E4/
    PLOG/1.0E2 5.242E10 5.51E-1 1.307E4/
CH3+OH=HCOH+H2    8.674E8 0.787 -3.046E3
    PLOG/1.0E-2 8.674E8 7.87E-1 -3.046E3/
    PLOG/1.0E-1 3.115E9 6.3E-1 -2.669E3/
    PLOG/1.0E0 1.557E11 1.56E-1 -1.368E3/
    PLOG/1.0E1 1.704E21 -2.641E0 6.412E3/
    PLOG/1.0E2 7.25E20 -2.402E0 9.639E3/
CH3+OH=CH2+H2O    4.293E4 2.568 3.9978E3
CH3O2+O=CH3O+O2    3.6E13 0.0 0.0E0
CH3OH(+M)=CH3+OH(+M)    2.084E18 -0.615 9.25406E4
    LOW/1.5E43 -6.995E0 9.79922E4/
    TROE/-4.748E-1 3.558E4 1.116E3 9.023E3/
CH3OH(+M)=CH2(S)+H2O(+M)    3.121E18 -1.017 9.1712E4
    LOW/1.43E47 -8.227E0 9.94171E4/
    TROE/2.545E0 3.29E3 4.732E4 4.711E4/
CH3OH(+M)=CH2OH+H(+M)    7.896E-3 5.038 8.44674E4
    LOW/3.39E42 -7.244E0 1.052303E5/
    TROE/-7.391E1 3.705E4 4.15E4 5.22E3/
CH3OH+H=CH3O+H2    1.99E5 2.56 1.03E4
CH3OH+O=CH3O+OH    3.88E4 2.5 3.08E3
CH3OH+O=CH2OH+OH    3.88E5 2.5 3.08E3
CH3OH+OH=CH3O+H2O    1.5E2 3.03 -7.63E2
CH3OH+O2=CH2OH+HO2    3.58E5 2.27 4.27645E4
CH3OH+HCO=CH2OH+CH2O    9.63E3 2.9 1.311E4
CH3OH+CH3O=CH2OH+CH3OH    3.0E11 0.0 4.074E3
CH2OH+O2=CH2O+HO2    1.51E15 -1.0 0.0E0
    DUP
CH2OH+O2=CH2O+HO2    2.41E14 0.0 5.017E3
    DUP
CH2OH+H=CH2O+H2    6.0E12 0.0 0.0E0
CH2OH+HO2=CH2O+H2O2    1.2E13 0.0 0.0E0
CH2OH+HCO=2CH2O    1.8E14 0.0 0.0E0
CH2OH+HCO=CH3OH+CO    1.0E13 0.0 0.0E0
CH2OH+CH3O=CH2O+CH3OH    2.4E13 0.0 0.0E0
CH2OH+OH=H2O+CH2O    2.4E13 0.0 0.0E0
CH2OH+O=OH+CH2O    4.2E13 0.0 0.0E0
2CH2OH=CH2O+CH3OH    3.0E12 0.0 0.0E0
CH2OH+HO2=HOCH2O+OH    1.0E13 0.0 0.0E0
CH3O+H=CH2O+H2    2.0E13 0.0 0.0E0
CH3O+HO2=CH2O+H2O2    3.01E11 0.0 0.0E0
CH3O+CH3=CH2O+CH4    1.2E13 0.0 0.0E0
HCOH+O2=>CO2+H+OH    5.0E12 0.0 0.0E0
HCOH+O2=CO2+H2O    3.0E13 0.0 0.0E0
HCOH+O=>CO2+2H    5.0E13 0.0 0.0E0
HCOH+O=>CO+OH+H    3.0E13 0.0 0.0E0
HCOH+H=CH2O+H    2.0E14 0.0 0.0E0
HCOH+OH=HCO+H2O    2.0E13 0.0 0.0E0
HCO+H(+M)=CH2O(+M)    1.09E12 0.48 -2.6E2
    H2/2.0/
    H2O/6.0/
    AR/0.7/
    CO/1.5/
    CO2/2.0/
    CH4/2.0/
    C2H6/3.0/
    HE/0.7/
    LOW/1.35E24 -2.57E0 1.425E3/
    TROE/7.824E-1 2.71E2 2.755E3 6.57E3/
CO+H2(+M)=CH2O(+M)    4.3E7 1.5 7.96E4
    H2/2.0/
    H2O/6.0/
    AR/0.7/
    CO/1.5/
    CO2/2.0/
    CH4/2.0/
    C2H6/3.0/
    HE/0.7/
    LOW/5.07E27 -3.42E0 8.4348E4/
    TROE/9.32E-1 1.97E2 1.54E3 1.03E4/
CH2O+O2=HCO+HO2    8.07E15 0.0 5.342E4
CH2O+O=HCO+OH    6.26E9 1.15 2.26E3
CH2O+CH3=HCO+CH4    3.83E1 3.36 4.312E3
CH2O+O2CHO=HCO+HO2CHO    1.99E12 0.0 1.166E4
CH2O+OCHO=HCO+HOCHO    5.6E12 0.0 1.36E4
HCO+O=CO+OH    3.02E13 0.0 0.0E0
HCO+H=CO+H2    7.34E13 0.0 0.0E0
HCO+OH=CO+H2O    3.011E13 0.0 0.0E0
HCO+CH3=CO+CH4    2.65E13 0.0 0.0E0
2HCO=CO+CH2O    1.8E13 0.0 0.0E0
HCO+O=CO2+H    3.0E13 0.0 0.0E0
HCO+HO2=>CO2+H+OH    3.0E13 0.0 0.0E0
2HCO=>H2+2CO    3.0E12 0.0 0.0E0
CH2O+H(+M)=CH2OH(+M)    5.4E11 0.454 3.6E3
    H2/2.0/
    H2O/6.0/
    CO/1.5/
    CO2/2.0/
    CH4/2.0/
    C2H6/3.0/
    LOW/1.27E32 -4.82E0 6.53E3/
    TROE/7.187E-1 1.03E2 1.291E3 4.16E3/
CH2O+OH=HOCH2O    6.32E6 1.63 4.284E3
HOCH2O=HOCHO+H    4.403E8 1.363 1.1664E4
    PLOG/1.0E-3 2.042E12 -1.61E0 7.28E3/
    PLOG/4.0E-3 8.065E13 -1.9E0 8.11E3/
    PLOG/1.8E-2 3.55E15 -2.2E0 8.99E3/
    PLOG/7.5E-2 1.56E17 -2.5E0 9.91E3/
    PLOG/3.16E-1 5.389E18 -2.77E0 1.085E4/
    PLOG/1.334E0 8.624E19 -2.93E0 1.173E4/
    PLOG/5.623E0 2.405E20 -2.87E0 1.243E4/
    PLOG/2.3714E1 3.214E19 -2.42E0 1.274E4/
    PLOG/1.0E2 1.032E17 -1.48E0 1.248E4/
HCO+O2=O2CHO    1.2E11 0.0 -1.1E3
HOCHO=CO+H2O    2.45E12 0.0 6.047E4
HOCHO=CO2+H2    2.95E9 0.0 4.852E4
OCHO+HO2=HOCHO+O2    3.5E10 0.0 -3.275E3
OCHO+H2O2=HOCHO+HO2    2.4E12 0.0 1.0E4
HOCHO+H=>H2+CO2+H    4.24E6 2.1 4.868E3
HOCHO+H=>H2+CO+OH    6.03E13 -0.35 2.988E3
HOCHO+O=>CO+2OH    1.77E18 -1.9 2.975E3
HOCHO+OH=>H2O+CO2+H    2.62E6 2.06 9.16E2
HOCHO+OH=>H2O+CO+OH    1.85E7 1.51 -9.62E2
HOCHO+CH3=>CH4+CO+OH    3.9E-7 5.8 2.2E3
HOCHO+HO2=>H2O2+CO+OH    1.0E12 0.0 1.192E4
OCHO+OH=HO2CHO    2.0E13 0.0 0.0E0
C2H5+H(+M)=C2H6(+M)    5.21E17 -0.99 1.58E3
    H2/2.0/
    H2O/6.0/
    AR/0.7/
    CO/1.5/
    CO2/2.0/
    CH4/2.0/
    C2H6/3.0/
    HE/0.7/
    LOW/1.99E41 -7.08E0 6.685E3/
    TROE/8.42E-1 1.25E2 2.219E3 6.882E3/
2CH3=H+C2H5    4.74E12 0.105 1.06643E4
    PLOG/1.0E-2 4.74E12 1.05E-1 1.06643E4/
    PLOG/1.0E-1 2.57E13 -9.6E-2 1.14061E4/
    PLOG/1.0E0 3.1E14 -3.62E-1 1.33725E4/
    PLOG/1.0E1 2.15E10 8.85E-1 1.35325E4/
    PLOG/1.0E2 1.032E2 3.23E0 1.12361E4/
C2H6+O2=C2H5+HO2    6.03E13 0.0 5.187E4
C2H6+O=C2H5+OH    3.55E6 2.4 5.83E3
C2H6+HO2=C2H5+H2O2    3.46E1 3.61 1.692E4
C2H6+CH=C2H5+CH2    1.1E14 0.0 -2.6E2
C2H6+CH2(S)=C2H5+CH3    1.2E14 0.0 0.0E0
C2H6+CH3O=C2H5+CH3OH    2.41E11 0.0 7.09E3
C2H6+CH3O2=C2H5+CH3O2H    1.94E1 3.64 1.71E4
C2H6+C2H5O2=C2H5+C2H5O2H    8.6E0 3.76 1.72E4
C2H4+H(+M)=C2H5(+M)    9.569E8 1.463 1.355E3
    H2/2.0/
    H2O/6.0/
    CH4/2.0/
    CO/1.5/
    CO2/2.0/
    C2H6/3.0/
    AR/0.7/
    LOW/1.419E39 -6.642E0 5.769E3/
    TROE/-5.69E-1 2.99E2 -9.147E3 1.524E2/
C2H5+H=C2H4+H2    2.0E12 0.0 0.0E0
2C2H4=C2H5+C2H3    4.82E14 0.0 7.153E4
C2H5+CH3=CH4+C2H4    1.18E4 2.45 -2.921E3
C2H5+O=CH3CHO+H    1.1E14 0.0 0.0E0
C2H5+HO2=C2H5O+OH    1.1E13 0.0 0.0E0
C2H5+CH3O2=C2H5O+CH3O    8.0E12 0.0 -1.0E3
C2H5+O2=C2H5O2    3.398E53 -13.9 9.279E3
    PLOG/4.0E-2 3.398E53 -1.39E1 9.279E3/
    PLOG/1.0E0 9.362E59 -1.528E1 1.424E4/
    PLOG/1.0E1 1.262E60 -1.491E1 1.624E4/
C2H5+O2=C2H4+HO2    2.094E9 0.49 -3.914E2
    PLOG/4.0E-2 2.094E9 4.9E-1 -3.914E2/
    PLOG/1.0E0 1.843E7 1.13E0 -7.206E2/
    PLOG/1.0E1 7.561E14 -1.01E0 4.749E3/
C2H5+O2=C2H4O1-2+OH    1.303E3 1.93 -5.027E2
    PLOG/4.0E-2 1.303E3 1.93E0 -5.027E2/
    PLOG/1.0E0 2.438E2 2.18E0 -6.25E1/
    PLOG/1.0E1 4.621E9 1.5E-1 5.409E3/
C2H5+O2=CH3CHO+OH    4.908E-6 4.76 2.543E2
    PLOG/4.0E-2 4.908E-6 4.76E0 2.543E2/
    PLOG/1.0E0 6.803E-2 3.57E0 2.643E3/
    PLOG/1.0E1 8.265E2 2.41E0 5.285E3/
C2H5O2=CH3CHO+OH    1.237E35 -9.42 3.636E4
    PLOG/4.0E-2 1.237E35 -9.42E0 3.636E4/
    PLOG/1.0E0 1.687E36 -9.22E0 3.87E4/
    PLOG/1.0E1 2.52E41 -1.02E1 4.371E4/
C2H5O2=C2H4+HO2    1.782E32 -7.1 3.284E4
    PLOG/4.0E-2 1.782E32 -7.1E0 3.284E4/
    PLOG/1.0E0 2.701E37 -8.47E0 3.584E4/
    PLOG/1.0E1 1.98E38 -8.46E0 3.79E4/
C2H5O2=C2H4O1-2+OH    5.778E45 -11.9 4.112E3
    PLOG/4.0E-2 5.778E45 -1.19E1 4.112E3/
    PLOG/1.0E0 1.916E43 -1.075E1 4.24E4/
    PLOG/1.0E1 3.965E43 -1.046E1 4.558E4/
C2H5O2+HO2=C2H5O2H+O2    1.75E10 0.0 -3.275E3
C2H5O2+CH2O=C2H5O2H+HCO    1.99E12 0.0 1.166E4
C2H5O2+CH4=C2H5O2H+CH3    1.81E11 0.0 1.848E4
C2H5O2+CH3OH=C2H5O2H+CH2OH    1.81E12 0.0 1.371E4
C2H5O2+H2=C2H5O2H+H    1.5E14 0.0 2.603E4
C2H5O2H=C2H5O+OH    6.31E14 0.0 4.23E4
C2H4O1-2=CH3+HCO    3.63E13 0.0 5.72E4
C2H4O1-2=CH3CHO    7.407E12 0.0 5.38E4
C2H4O1-2+H=C2H3O1-2+H2    8.0E13 0.0 9.68E3
C2H4O1-2+OH=C2H3O1-2+H2O    1.78E13 0.0 3.61E3
C2H4O1-2+HO2=C2H3O1-2+H2O2    1.13E13 0.0 3.043E4
C2H4O1-2+CH3=C2H3O1-2+CH4    1.07E12 0.0 1.183E4
C2H4O1-2+CH3O=C2H3O1-2+CH3OH    1.2E11 0.0 6.75E3
C2H4O1-2+CH3O2=C2H3O1-2+CH3O2H    1.13E13 0.0 3.043E4
C2H4O1-2+C2H5O2=C2H3O1-2+C2H5O2H    1.13E13 0.0 3.043E4
C2H3O1-2=CH3CO    8.5E14 0.0 1.4E4
C2H3O1-2=CH2CHO    1.0E14 0.0 1.4E4
C2H3+H(+M)=C2H4(+M)    6.08E12 0.27 2.8E2
    H2/2.0/
    H2O/6.0/
    AR/0.7/
    CO/1.5/
    CO2/2.0/
    CH4/2.0/
    C2H6/3.0/
    HE/0.7/
    LOW/1.4E30 -3.86E0 3.32E3/
    TROE/7.82E-1 2.075E2 2.663E3 6.095E3/
C2H4(+M)=H2+H2CC(+M)    8.0E12 0.44 8.877E4
    H2/2.0/
    H2O/6.0/
    CH4/2.0/
    CO/1.5/
    CO2/2.0/
    C2H6/3.0/
    AR/0.7/
    LOW/7.0E50 -9.31E0 9.986E4/
    TROE/7.345E-1 1.8E2 1.035E3 5.417E3/
C2H4+O2=C2H3+HO2    4.22E13 0.0 5.76231E4
C2H4+H=C2H3+H2    5.07E7 1.93 1.295E4
C2H4+OH=C2H3+H2O    2.23E4 2.745 2.2155E3
C2H4+CH3O=C2H3+CH3OH    1.2E11 0.0 6.75E3
C2H4+CH3O2=C2H3+CH3O2H    8.59E0 3.754 2.7132E4
C2H4+C2H5O2=C2H3+C2H5O2H    8.59E0 3.754 2.7132E4
C2H4+CH3CO3=C2H3+CH3CO3H    1.13E13 0.0 3.043E4
C2H4+CH3=C2H3+CH4    9.76E2 2.947 1.5148E4
    DUP
C2H4+CH3=C2H3+CH4    8.13E-5 4.417 8.8358E3
    DUP
C2H4+O=CH3+HCO    7.453E6 1.88 1.83E2
C2H4+O=CH2CHO+H    6.098E6 1.88 1.83E2
CH+CH4=C2H4+H    6.0E13 0.0 0.0E0
CH2(S)+CH3=C2H4+H    2.0E13 0.0 0.0E0
C2H4+OH=CH3+CH2O    5.35E0 2.92 -1.7327E3
    PLOG/1.0E-2 5.35E0 2.92E0 -1.7327E3/
    PLOG/2.5E-2 3.19E1 2.71E0 -1.1723E3/
    PLOG/1.0E-1 5.55E2 2.36E0 -1.808E2/
    PLOG/1.0E0 1.78E5 1.68E0 2.0605E3/
    PLOG/1.0E1 2.37E9 5.6E-1 6.0067E3/
    PLOG/1.0E2 2.76E13 -5.0E-1 1.14551E4/
C2H4+OH=CH3CHO+H    2.37E-7 5.3 -2.0506E3
    PLOG/1.0E-2 2.37E-7 5.3E0 -2.0506E3/
    PLOG/2.5E-2 8.73E-5 4.57E0 -6.18E2/
    PLOG/1.0E-1 4.03E-1 3.54E0 1.8817E3/
    PLOG/1.0E0 2.38E-2 3.91E0 1.7227E3/
    PLOG/1.0E1 8.25E8 1.01E0 1.05073E4/
    PLOG/1.0E2 6.8E9 8.1E-1 1.38673E4/
C2H4+OH=C2H3OH+H    1.04E4 2.6 4.121E3
    PLOG/1.0E-2 1.04E4 2.6E0 4.121E3/
    PLOG/2.5E-2 1.07E4 2.6E0 4.129E3/
    PLOG/1.0E-1 1.52E4 2.56E0 4.2383E3/
    PLOG/1.0E0 3.19E5 2.19E0 5.2556E3/
    PLOG/1.0E1 1.94E8 1.43E0 7.8288E3/
    PLOG/1.0E2 8.55E10 7.5E-1 1.14908E4/
C2H4+OH=PC2H4OH    1.74E43 -10.461 7.6987E3
    PLOG/1.0E-2 1.74E43 -1.0461E1 7.6987E3/
    PLOG/2.5E-2 3.25E37 -8.629E0 5.2147E3/
    PLOG/1.0E-1 1.84E35 -7.75E0 4.9089E3/
    PLOG/1.0E0 2.56E36 -7.752E0 6.9461E3/
    PLOG/1.0E1 3.7E33 -6.573E0 7.6059E3/
    PLOG/1.0E2 1.12E26 -4.101E0 5.757E3/
C2H4+HO2=C2H4O1-2+OH    3.345E12 0.0 1.719E4
C2H4+CH3O2=C2H4O1-2+CH3O    2.82E12 0.0 1.711E4
C2H4+C2H5O2=C2H4O1-2+C2H5O    2.82E12 0.0 1.711E4
C2H2+H(+M)=C2H3(+M)    1.71E10 1.266 2.709E3
    H2/2.0/
    H2O/6.0/
    AR/0.7/
    CO/1.5/
    CO2/2.0/
    CH4/2.0/
    C2H6/3.0/
    HE/0.7/
    LOW/6.346E31 -4.664E0 3.78E3/
    TROE/7.88E-1 -1.02E4 1.0E-30/
C2H3+O2=CHCHO+OH    2.84E14 -0.8 7.232E3
    DUP
    PLOG/1.0E-2 3.91E11 -1.1E-1 2.131E3/
    PLOG/1.0E-1 1.13E9 5.5E-1 4.6E1/
    PLOG/3.16E-1 8.46E8 5.6E-1 7.0E-1/
    PLOG/1.0E0 2.75E14 -1.83E0 4.6E0/
    PLOG/3.16E0 2.58E20 -2.84E0 7.53E3/
    PLOG/1.0E1 9.18E14 -2.26E0 -4.0E-1/
    PLOG/3.16E1 6.11E25 -4.21E0 1.305E4/
    PLOG/1.0E2 1.65E30 -5.35E0 1.843E4/
C2H3+O2=CHCHO+OH    2.84E14 -0.8 7.232E3
    DUP
    PLOG/1.0E-2 9.91E11 -6.6E-1 -6.0E-1/
    PLOG/1.0E-1 6.94E14 -1.16E0 4.542E3/
    PLOG/3.16E-1 2.79E13 -7.2E-1 3.479E3/
    PLOG/1.0E0 4.99E11 -1.4E-1 1.995E3/
    PLOG/3.16E0 2.35E10 2.3E-1 1.573E3/
    PLOG/1.0E1 1.7E14 -8.2E-1 4.45E3/
    PLOG/3.16E1 1.42E11 5.0E-2 3.774E3/
    PLOG/1.0E2 3.17E11 -2.0E-2 5.338E3/
C2H3+O2=CH2CHO+O    1.76E12 0.15 4.205E3
    DUP
    PLOG/1.0E-2 7.88E20 -2.67E0 6.742E3/
    PLOG/1.0E-1 7.72E20 -2.67E0 6.713E3/
    PLOG/3.16E-1 9.87E20 -2.7E0 6.724E3/
    PLOG/1.0E0 7.1E20 -2.65E0 6.489E3/
    PLOG/3.16E0 4.5E20 -2.53E0 6.406E3/
    PLOG/1.0E1 1.76E23 -3.22E0 8.697E3/
    PLOG/3.16E1 3.14E25 -3.77E0 1.153E4/
    PLOG/1.0E2 1.02E26 -3.8E0 1.391E4/
C2H3+O2=CH2CHO+O    1.76E12 0.15 4.205E3
    DUP
    PLOG/1.0E-2 1.36E10 6.2E-1 -2.776E2/
    PLOG/1.0E-1 1.42E10 6.2E-1 -2.477E2/
    PLOG/3.16E-1 1.66E10 6.0E-1 -1.625E2/
    PLOG/1.0E0 2.02E10 5.8E-1 3.84E1/
    PLOG/3.16E0 9.75E9 6.7E-1 2.48E2/
    PLOG/1.0E1 7.34E9 7.2E-1 7.781E2/
    PLOG/3.16E1 1.57E9 9.2E-1 1.219E3/
    PLOG/1.0E2 7.85E7 1.28E0 1.401E3/
C2H3+O2=C2H2+HO2    6.49E6 1.5 5.218E3
    DUP
    PLOG/1.0E-2 1.08E7 1.28E0 3.322E3/
    PLOG/1.0E-1 7.75E6 1.33E0 3.216E3/
    PLOG/3.16E-1 1.21E7 1.27E0 3.311E3/
    PLOG/1.0E0 2.15E7 1.19E0 3.367E3/
    PLOG/3.16E0 1.13E8 1.0E0 3.695E3/
    PLOG/1.0E1 1.31E11 1.2E-1 5.872E3/
    PLOG/3.16E1 1.19E9 8.2E-1 5.617E3/
    PLOG/1.0E2 1.06E17 -1.45E0 1.223E4/
C2H3+O2=C2H2+HO2    6.49E6 1.5 5.218E3
    DUP
    PLOG/1.0E-2 4.76E1 2.75E0 -7.964E2/
    PLOG/1.0E-1 5.16E1 2.73E0 -7.683E2/
    PLOG/3.16E-1 5.55E1 2.73E0 -6.585E2/
    PLOG/1.0E0 4.6E1 2.76E0 -4.928E2/
    PLOG/3.16E0 3.75E0 3.07E0 -6.01E2/
    PLOG/1.0E1 5.48E0 3.07E0 8.57E1/
    PLOG/3.16E1 4.47E8 0.0E0 9.55E2/
    PLOG/1.0E2 2.02E1 2.94E0 1.847E3/
C2H3+O2=CHOCHO+H    3.08E12 -0.26 3.277E3
    DUP
    PLOG/1.0E-2 4.79E14 -1.03E0 9.12E2/
    PLOG/1.0E-1 5.03E14 -1.04E0 9.225E2/
    PLOG/3.16E-1 6.43E14 -1.07E0 9.829E2/
    PLOG/1.0E0 3.73E15 -1.29E0 1.441E3/
    PLOG/3.16E0 2.44E18 -2.13E0 3.234E3/
    PLOG/1.0E1 1.3E15 -1.09E0 2.393E3/
    PLOG/3.16E1 3.57E33 -6.5E0 1.491E4/
    PLOG/1.0E2 3.28E31 -5.76E0 1.625E4/
C2H3+O2=CHOCHO+H    3.08E12 -0.26 3.277E3
    DUP
    PLOG/1.0E-2 2.8E-4 4.04E0 -7.019E3/
    PLOG/1.0E-1 3.45E-4 4.01E0 -6.978E3/
    PLOG/3.16E-1 9.73E-4 3.89E0 -6.768E3/
    PLOG/1.0E0 4.98E-1 3.15E0 -5.496E3/
    PLOG/3.16E0 1.34E5 1.67E0 -2.931E3/
    PLOG/1.0E1 4.5E15 -3.08E0 -4.836E3/
    PLOG/3.16E1 3.84E10 2.2E-1 9.413E2/
    PLOG/1.0E2 2.75E8 8.3E-1 8.576E2/
C2H3+O2=CH2CO+OH    1.17E3 2.43 7.074E3
    DUP
    PLOG/1.0E-2 8.66E2 2.41E0 6.061E3/
    PLOG/1.0E-1 8.91E2 2.41E0 6.078E3/
    PLOG/3.16E-1 9.43E2 2.4E0 6.112E3/
    PLOG/1.0E0 1.06E3 2.39E0 6.18E3/
    PLOG/3.16E0 1.09E3 2.38E0 6.179E3/
    PLOG/1.0E1 1.39E3 2.36E0 6.074E3/
    PLOG/3.16E1 2.49E6 1.42E0 8.48E3/
    PLOG/1.0E2 1.66E10 3.6E-1 1.201E4/
C2H3+O2=CH2CO+OH    1.17E3 2.43 7.074E3
    DUP
    PLOG/1.0E-2 1.82E-1 3.12E0 1.331E3/
    PLOG/1.0E-1 2.07E-1 3.11E0 1.383E3/
    PLOG/3.16E-1 2.71E-1 3.08E0 1.496E3/
    PLOG/1.0E0 5.26E-1 3.01E0 1.777E3/
    PLOG/3.16E0 1.37E0 2.9E0 2.225E3/
    PLOG/1.0E1 4.19E-1 2.93E0 2.052E3/
    PLOG/3.16E1 1.19E-4 4.21E0 2.043E3/
    PLOG/1.0E2 1.3E-3 3.97E0 3.414E3/
C2H3+O2=CH2O+HCO    1.16E16 -1.13 3.791E3
    DUP
    PLOG/1.0E-2 2.49E36 -7.6E0 1.264E4/
    PLOG/1.0E-1 2.43E36 -7.6E0 1.261E4/
    PLOG/3.16E-1 1.95E36 -7.57E0 1.249E4/
    PLOG/1.0E0 2.73E35 -7.32E0 1.182E4/
    PLOG/3.16E0 1.43E36 -7.47E0 1.246E4/
    PLOG/1.0E1 5.18E35 -7.2E0 1.343E4/
    PLOG/3.16E1 3.19E20 -2.57E0 5.578E3/
    PLOG/1.0E2 2.73E33 -6.28E0 1.6E4/
C2H3+O2=CH2O+HCO    1.16E16 -1.13 3.791E3
    DUP
    PLOG/1.0E-2 4.54E15 -1.28E0 5.153E2/
    PLOG/1.0E-1 4.59E15 -1.28E0 5.13E2/
    PLOG/3.16E-1 4.81E15 -1.29E0 5.206E2/
    PLOG/1.0E0 6.08E15 -1.31E0 6.457E2/
    PLOG/3.16E0 9.45E15 -1.36E0 1.066E3/
    PLOG/1.0E1 2.56E15 -1.18E0 1.429E3/
    PLOG/3.16E1 1.03E69 -1.923E1 1.476E4/
    PLOG/1.0E2 4.21E10 1.9E-1 8.306E2/
C2H3+O2=>CH2O+H+CO    1.16E16 -1.13 3.791E3
    DUP
    PLOG/1.0E-2 5.82E36 -7.6E0 1.264E4/
    PLOG/1.0E-1 5.66E36 -7.6E0 1.261E4/
    PLOG/3.16E-1 4.55E36 -7.57E0 1.249E4/
    PLOG/1.0E0 6.36E35 -7.32E0 1.182E4/
    PLOG/3.16E0 3.35E36 -7.47E0 1.246E4/
    PLOG/1.0E1 1.21E36 -7.2E0 1.343E4/
    PLOG/3.16E1 7.43E20 -2.57E0 5.578E3/
    PLOG/1.0E2 6.36E33 -6.28E0 1.6E4/
C2H3+O2=>CH2O+H+CO    1.16E16 -1.13 3.791E3
    DUP
    PLOG/1.0E-2 1.06E16 -1.28E0 5.153E2/
    PLOG/1.0E-1 1.07E16 -1.28E0 5.13E2/
    PLOG/3.16E-1 1.13E16 -1.29E0 5.206E2/
    PLOG/1.0E0 1.42E16 -1.31E0 6.457E2/
    PLOG/3.16E0 2.2E16 -1.36E0 1.066E3/
    PLOG/1.0E1 5.98E15 -1.18E0 1.429E3/
    PLOG/3.16E1 2.39E69 -1.923E1 1.476E4/
    PLOG/1.0E2 9.81E10 1.9E-1 8.306E2/
C2H3+O2=CO+CH3O    3.09E13 -0.89 3.682E3
    DUP
    PLOG/1.0E-2 8.19E18 -2.66E0 3.201E3/
    PLOG/1.0E-1 4.06E14 -1.32E0 8.858E2/
    PLOG/3.16E-1 4.34E14 -1.33E0 9.006E2/
    PLOG/1.0E0 1.03E11 -3.3E-1 -7.478E2/
    PLOG/3.16E0 1.89E12 -3.0E0 -8.995E3/
    PLOG/1.0E1 1.93E24 -5.63E0 1.8E0/
    PLOG/3.16E1 1.1E18 -2.22E0 5.178E3/
    PLOG/1.0E2 5.79E32 -6.45E0 1.681E4/
C2H3+O2=CO+CH3O    3.09E13 -0.89 3.682E3
    DUP
    PLOG/1.0E-2 1.29E9 1.8E-1 -1.717E3/
    PLOG/1.0E-1 5.99E11 -2.93E0 -9.564E3/
    PLOG/3.16E-1 2.91E11 -2.93E0 -1.012E4/
    PLOG/1.0E0 5.77E21 -3.54E0 4.772E3/
    PLOG/3.16E0 4.99E15 -1.62E0 1.849E3/
    PLOG/1.0E1 9.33E16 -1.96E0 3.324E3/
    PLOG/3.16E1 1.02E72 -2.069E1 1.586E4/
    PLOG/1.0E2 1.1E9 3.1E-1 1.024E3/
C2H3+O2=CO2+CH3    6.16E13 -1.05 3.743E3
    DUP
    PLOG/1.0E-2 2.37E35 -7.76E0 1.263E4/
    PLOG/1.0E-1 1.73E35 -7.72E0 1.252E4/
    PLOG/3.16E-1 4.47E34 -7.55E0 1.214E4/
    PLOG/1.0E0 7.25E31 -6.7E0 1.044E4/
    PLOG/3.16E0 3.63E35 -7.75E0 1.283E4/
    PLOG/1.0E1 2.09E35 -7.53E0 1.405E4/
    PLOG/3.16E1 3.84E18 -2.44E0 5.408E3/
    PLOG/1.0E2 1.21E32 -6.32E0 1.619E4/
C2H3+O2=CO2+CH3    6.16E13 -1.05 3.743E3
    DUP
    PLOG/1.0E-2 6.27E13 -1.16E0 4.063E2/
    PLOG/1.0E-1 6.24E13 -1.16E0 4.014E2/
    PLOG/3.16E-1 6.12E13 -1.16E0 3.97E2/
    PLOG/1.0E0 5.32E13 -1.14E0 4.467E2/
    PLOG/3.16E0 1.45E14 -1.26E0 9.877E2/
    PLOG/1.0E1 5.02E13 -1.11E0 1.409E3/
    PLOG/3.16E1 1.4E70 -2.011E1 1.543E4/
    PLOG/1.0E2 9.21E8 2.5E-1 8.553E2/
C2H3+H=C2H2+H2    1.7E14 0.0 0.0E0
C2H3+H=H2CC+H2    6.0E13 0.0 0.0E0
C2H3+OH=C2H2+H2O    3.011E13 0.0 0.0E0
C2H3+CH3=C2H2+CH4    3.92E11 0.0 0.0E0
2C2H3=C2H2+C2H4    9.6E11 0.0 0.0E0
CHOCHO+OH=>HCO+CO+H2O    6.13299E4 2.65 -4.5864E3
C2H2(+M)=H2CC(+M)    8.0E14 -0.52 5.075E4
    H2/2.0/
    H2O/6.0/
    CH4/2.0/
    CO/1.5/
    CO2/2.0/
    C2H6/3.0/
    C2H2/2.5/
    C2H4/2.5/
    LOW/2.45E15 -6.4E-1 4.97E4/
H2CC+OH=CH2CO+H    2.0E13 0.0 0.0E0
H2CC+O2=2HCO    1.0E13 0.0 0.0E0
H2CC+H=C2H2+H    1.0E14 0.0 0.0E0
C2H2+O=CH2+CO    7.395E8 1.28 2.472E3
C2H2+O=HCCO+H    2.958E9 1.28 2.472E3
C2H2+HO2=CH2CO+OH    6.03E9 0.0 7.949E3
C2H2+HCO=C2H3+CO    1.0E7 2.0 6.0E3
C2H2+OH=CH2CO+H    1.578E3 2.56 -8.445E2
    PLOG/1.0E-2 1.578E3 2.56E0 -8.445E2/
    PLOG/2.5E-2 1.518E4 2.28E0 -2.921E2/
    PLOG/1.0E-1 3.017E5 1.92E0 5.981E2/
    PLOG/1.0E0 7.528E6 1.55E0 2.106E3/
    PLOG/1.0E1 5.101E6 1.65E0 3.4E3/
    PLOG/1.0E2 1.457E4 2.45E0 4.477E3/
C2H2+OH=CH3+CO    4.757E5 1.68 -3.298E2
    PLOG/1.0E-2 4.757E5 1.68E0 -3.298E2/
    PLOG/2.5E-2 4.372E6 1.4E0 2.265E2/
    PLOG/1.0E-1 7.648E7 1.05E0 1.115E3/
    PLOG/1.0E0 1.277E9 7.3E-1 2.579E3/
    PLOG/1.0E1 4.312E8 9.2E-1 3.736E3/
    PLOG/1.0E2 8.25E5 1.77E0 4.697E3/
CH3CHO(+M)=CH3+HCO(+M)    2.45E22 -1.74 8.6355E4
    LOW/1.03E59 -1.13E1 9.59125E4/
    TROE/2.49E-3 7.181E2 6.089E0 3.78E3/
CH3CHO(+M)=CH4+CO(+M)    2.72E21 -1.74 8.6355E4
    LOW/1.144E58 -1.13E1 9.59125E4/
    TROE/2.49E-3 7.181E2 6.089E0 3.78E3/
CH3CHO+O2=CH3CO+HO2    3.01E13 0.0 3.915E4
CH3CHO+O=CH3CO+OH    5.94E12 0.0 1.868E3
CH3CHO+H=CH3CO+H2    1.31E5 2.58 1.22E3
CH3CHO+OH=CH3CO+H2O    3.37E12 0.0 -6.19E2
CH3CHO+HO2=CH3CO+H2O2    3.01E12 0.0 1.192E4
CH3CHO+CH3=CH3CO+CH4    7.08E-4 4.58 1.966E3
CH3CHO+C2H3=CH3CO+C2H4    1.65E1 3.17 9.3998E3
CH3CHO+CH3O2=CH3CO+CH3O2H    3.01E12 0.0 1.192E4
CH3CHO+CH3CO3=CH3CO+CH3CO3H    3.01E12 0.0 1.192E4
CH3CHO+H=CH2CHO+H2    2.72E3 3.1 5.21E3
CH3CHO+OH=CH2CHO+H2O    1.72E5 2.4 8.15E2
CH3CHO+OH=CH3+HOCHO    3.0E15 -1.076 0.0E0
CH3CO(+M)=CH3+CO(+M)    1.07E12 0.63 1.69E4
    LOW/5.65E18 -9.7E-1 1.46E4/
    TROE/6.29E-1 8.73E9 5.52E0 7.6E7/
CH3CO(+M)=CH2CO+H(+M)    9.413E7 1.917 4.49872E4
    LOW/1.516E51 -1.027E1 5.539E4/
    TROE/6.009E-1 8.103E9 6.677E2 5.0E9/
CH3CO+H=CH2CO+H2    2.0E13 0.0 0.0E0
CH3CO+O=CH2CO+OH    2.0E13 0.0 0.0E0
CH3CO+CH3=CH2CO+CH4    5.0E13 0.0 0.0E0
CH3CO+O2=CH3CO3    1.2E11 0.0 -1.1E3
C2H3OH=CH3CHO    7.42E46 -10.56 6.742E4
    PLOG/1.0E-1 7.42E46 -1.056E1 6.742E4/
    PLOG/1.0E0 4.42E42 -9.09E0 6.70692E4/
    PLOG/1.0E2 2.9E27 -4.35E0 6.16129E4/
C2H3OH+O2=CH2CHO+HO2    5.31E11 0.21 3.983E4
C2H3OH+O=CH2CHO+OH    1.875E6 1.9 -8.6E2
C2H3OH+H=CH2CHO+H2    1.48E3 3.077 7.22E3
C2H3OH+OH=CH2CHO+H2O    3.33E9 1.1 5.405E2
C2H3OH+CH3=CH2CHO+CH4    2.03E-8 5.9 1.052E3
C2H3OH+CH3O2=CH2CHO+CH3O2H    3.4E3 2.5 8.922E3
C2H3OH+H=PC2H4OH    3.01E8 1.577 3.67E3
C2H3OH+HO2=CH3CHO+HO2    1.49E5 1.67 6.81E3
CH2CHO(+M)=CH2CO+H(+M)    1.43E15 -0.15 4.56E4
    LOW/6.0E29 -3.8E0 4.34239E4/
    TROE/9.85E-1 3.93E2 9.8E9 5.0E9/
CH2CHO(+M)=CH3+CO(+M)    2.93E12 0.29 4.03E4
    LOW/9.52E33 -5.07E0 4.13E4/
    TROE/7.13E-17 1.15E3 4.99E9 1.79E9/
CH3CO3H=CH3CO2+OH    5.01E14 0.0 4.015E4
CH3CO3+CH2O=CH3CO3H+HCO    1.99E12 0.0 1.166E4
CH3CO3+C2H6=CH3CO3H+C2H5    1.7E13 0.0 2.046E4
CH3CO3+HO2=CH3CO3H+O2    1.75E10 0.0 -3.275E3
CH3CO3+H2O2=CH3CO3H+HO2    2.41E12 0.0 9.936E3
CH3CO3+CH4=CH3CO3H+CH3    1.81E11 0.0 1.848E4
CH3CO2+M=CH3+CO2+M    4.4E15 0.0 1.05E4
CH2CHO+O2=CH2CO+HO2    1.88E5 2.37 2.373E4
    PLOG/1.0E-2 1.88E5 2.37E0 2.373E4/
    PLOG/1.0E-1 1.88E5 2.37E0 2.737E4/
    PLOG/1.0E0 2.51E5 2.33E0 2.38E4/
    PLOG/1.0E1 7.05E7 1.63E0 2.529E4/
CH2CHO+O2=>CH2O+CO+OH    2.68E17 -1.84 6.53E3
    PLOG/1.0E-2 2.68E17 -1.84E0 6.53E3/
    PLOG/1.0E-1 1.52E20 -2.58E0 8.98E3/
    PLOG/1.0E0 1.65E19 -2.22E0 1.034E4/
    PLOG/1.0E1 8.953E13 -6.0E-1 1.012E4/
CH2+CO(+M)=CH2CO(+M)    8.1E11 0.0 0.0E0
    H2/2.0/
    H2O/6.0/
    AR/0.7/
    CO/1.5/
    CO2/2.0/
    CH4/2.0/
    C2H6/3.0/
    HE/0.7/
    LOW/2.69E33 -5.11E0 7.095E3/
    TROE/5.907E-1 2.75E2 1.226E3 5.185E3/
CH2CO+H=HCCO+H2    1.401E15 -0.171 8.7832E3
CH2CO+O=HCCO+OH    1.0E13 0.0 8.0E3
CH2CO+OH=HCCO+H2O    1.0E13 0.0 2.0E3
CH2CO+H=CH3+CO    7.704E13 -0.171 4.1832E3
CH+CH2O=H+CH2CO    9.46E13 0.0 -5.15E2
CH2CO+O=CH2+CO2    1.75E12 0.0 1.35E3
CH2CO+OH=CH2OH+CO    2.0E12 0.0 -1.01E3
CH2CO+CH2(S)=C2H4+CO    1.6E14 0.0 0.0E0
CH2CO+CH3=C2H5+CO    4.769E4 2.312 9.468E3
CH+CO+M=HCCO+M    7.57E22 -1.9 0.0E0
HCCO+OH=>H2+2CO    1.0E14 0.0 0.0E0
HCCO+O=>H+2CO    8.0E13 0.0 0.0E0
HCCO+CH=CO+C2H2    5.0E13 0.0 0.0E0
HCCO+H=CH2(S)+CO    1.0E14 0.0 0.0E0
HCCO+O2=>OH+2CO    1.91E11 -0.02 1.02E3
HCCO+O2=>CO2+CO+H    4.78E12 -0.142 1.15E3
C2H5OH=C2H4+H2O    3.41E59 -14.2 8.36726E4
    PLOG/1.0E-3 3.41E59 -1.42E1 8.36726E4/
    PLOG/1.0E-2 2.62E57 -1.33E1 8.52622E4/
    PLOG/1.0E-1 1.65E52 -1.15E1 8.47456E4/
    PLOG/1.0E0 5.23E43 -8.9E0 8.15067E4/
    PLOG/1.0E1 4.59E32 -5.6E0 7.60624E4/
    PLOG/1.0E2 3.84E20 -2.06E0 6.94655E4/
C2H5OH=CH3+CH2OH    1.2E54 -12.9 1.000057E5
    PLOG/1.0E-3 1.2E54 -1.29E1 1.000057E5/
    PLOG/1.0E-2 5.18E59 -1.4E1 9.99064E4/
    PLOG/1.0E-1 1.62E66 -1.53E1 1.053905E5/
    PLOG/1.0E0 5.55E64 -1.45E1 1.06183E5/
    PLOG/1.0E1 1.55E58 -1.23E1 1.05768E5/
    PLOG/1.0E2 1.78E47 -8.96E0 1.010588E5/
C2H5OH=C2H5+OH    8.1E46 -11.3 1.110534E5
    PLOG/1.0E-3 8.1E46 -1.13E1 1.110534E5/
    PLOG/1.0E-2 1.86E56 -1.35E1 1.072384E5/
    PLOG/1.0E-1 4.65E63 -1.5E1 1.096228E5/
    PLOG/1.0E0 4.46E65 -1.49E1 1.12345E5/
    PLOG/1.0E1 2.79E61 -1.34E1 1.130802E5/
    PLOG/1.0E2 6.17E51 -1.03E1 1.099407E5/
C2H5OH+O=C2H5O+OH    1.46E-3 4.73 1.727E3
C2H5OH+OH=C2H5O+H2O    5.81E-3 4.28 -3.56E3
C2H5OH+H=C2H5O+H2    9.45E2 3.14 8.7011E3
C2H5OH+HO2=C2H5O+H2O2    6.47E-7 5.3 1.05331E4
C2H5OH+CH3=C2H5O+CH4    2.035E0 3.57 7.721E3
C2H5OH+CH3O2=C2H5O+CH3O2H    3.236E-7 5.3 1.05331E4
C2H5OH+O2=SC2H4OH+HO2    1.5E13 0.0 5.015E4
C2H5OH+O=SC2H4OH+OH    1.45E5 2.47 8.76E2
C2H5OH+H=SC2H4OH+H2    8.79E4 2.68 2.91E3
C2H5OH+OH=SC2H4OH+H2O    7.52E4 2.49 -1.4741E3
C2H5OH+HO2=SC2H4OH+H2O2    2.45E-5 5.26 7.4751E3
C2H5OH+CH3=SC2H4OH+CH4    1.993E1 3.37 7.634E3
C2H5OH+CH3O2=SC2H4OH+CH3O2H    1.225E-5 5.26 7.4751E3
C2H5OH+C2H5=SC2H4OH+C2H6    5.0E10 0.0 1.04E4
C2H5OH+O2=PC2H4OH+HO2    2.0E13 0.0 5.28E4
C2H5OH+O=PC2H4OH+OH    9.69E2 3.23 4.658E3
C2H5OH+H=PC2H4OH+H2    5.31E4 2.81 7.49E3
C2H5OH+OH=PC2H4OH+H2O    3.76E3 2.78 -1.8102E3
C2H5OH+HO2=PC2H4OH+H2O2    3.986E-2 4.3 1.5333E4
C2H5OH+CH3=PC2H4OH+CH4    3.3E2 3.3 1.229E4
C2H5OH+CH3O2=PC2H4OH+CH3O2H    1.995E-2 4.3 1.5333E4
C2H5OH+C2H5=PC2H4OH+C2H6    5.0E10 0.0 1.34E4
SC2H4OH=CH3CHO+H    5.69E52 -13.38 4.5049E4
    PLOG/1.0E-3 5.69E52 -1.338E1 4.5049E4/
    PLOG/1.0E-2 3.29E56 -1.412E1 4.8129E4/
    PLOG/1.0E-1 8.58E57 -1.416E1 5.0743E4/
    PLOG/1.0E0 5.36E55 -1.315E1 5.1886E4/
    PLOG/1.0E1 1.66E48 -1.064E1 5.0297E4/
    PLOG/2.0E1 8.26E44 -9.59E0 4.9218E4/
    PLOG/5.0E1 1.01E40 -8.06E0 4.7439E4/
    PLOG/1.0E2 1.1E36 -6.84E0 4.5899E4/
SC2H4OH=C2H3OH+H    5.4E46 -11.63 4.4323E4
    PLOG/1.0E-3 5.4E46 -1.163E1 4.4323E4/
    PLOG/1.0E-2 1.21E51 -1.255E1 4.724E4/
    PLOG/1.0E-1 2.87E54 -1.315E1 5.0702E4/
    PLOG/1.0E0 3.79E53 -1.251E1 5.256E4/
    PLOG/1.0E1 6.33E46 -1.02E1 5.1441E4/
    PLOG/2.0E1 3.87E43 -9.17E0 5.044E4/
    PLOG/5.0E1 5.08E38 -7.65E0 4.8713E4/
    PLOG/1.0E2 5.12E34 -6.41E0 4.7182E4/
SC2H4OH=C2H5O    5.48E45 -11.63 4.4328E4
    PLOG/1.0E-3 5.48E45 -1.163E1 4.4328E4/
    PLOG/1.0E-2 2.54E49 -1.237E1 4.6445E4/
    PLOG/1.0E-1 1.65E54 -1.34E1 5.033E4/
    PLOG/1.0E0 1.81E55 -1.331E1 5.3132E4/
    PLOG/1.0E1 4.58E49 -1.132E1 5.2714E4/
    PLOG/2.0E1 4.11E46 -1.033E1 5.1834E4/
    PLOG/5.0E1 6.68E41 -8.83E0 5.0202E4/
    PLOG/1.0E2 6.54E37 -7.58E0 4.8697E4/
SC2H4OH=PC2H4OH    2.65E36 -8.86 5.1019E4
    PLOG/1.0E-3 2.65E36 -8.86E0 5.1019E4/
    PLOG/1.0E-2 3.56E37 -8.89E0 5.1114E4/
    PLOG/1.0E-1 4.14E39 -9.19E0 5.1912E4/
    PLOG/1.0E0 5.82E44 -1.034E1 5.5296E4/
    PLOG/1.0E1 4.26E48 -1.106E1 5.9458E4/
    PLOG/2.0E1 8.84E47 -1.074E1 5.9901E4/
    PLOG/5.0E1 2.23E45 -9.84E0 5.9604E4/
    PLOG/1.0E2 1.7E42 -8.83E0 5.8737E4/
CH3+CH2O=C2H5O    3.0E11 0.0 6.336E3
CH3CHO+H=C2H5O    4.61E7 1.71 7.09E3
C2H5O+O2=CH3CHO+HO2    4.28E10 0.0 1.097E3
O2C2H4OH=PC2H4OH+O2    3.9E16 -1.0 3.0E4
SC2H4OH+O2=CH3CHO+HO2    5.26E17 -1.638 8.69E2
SC2H4OH+O2=C2H3OH+HO2    5.512E3 2.495 -4.14E2
    PLOG/1.0E-2 5.12E2 2.496E0 -4.14E2/
    PLOG/1.0E-1 5.33E2 2.49E0 -4.02E2/
    PLOG/1.0E0 7.62E2 2.446E0 -2.96E2/
    PLOG/1.0E1 8.92E3 2.146E0 4.7E2/
    PLOG/1.0E2 4.38E5 1.699E0 2.33E3/
O2C2H4OH=>OH+2CH2O    1.25E11 0.0 1.89E4
    PLOG/1.0E-2 5.26E17 -1.637E0 8.38E2/
    PLOG/1.0E-1 5.26E17 -1.637E0 8.38E2/
    PLOG/1.0E0 5.28E17 -1.638E0 8.39E2/
    PLOG/1.0E1 1.54E18 -1.771E0 1.12E3/
    PLOG/1.0E2 3.78E20 -2.429E0 3.09E3/
CH3OCH3(+M)=CH3+CH3O(+M)    2.33E19 -0.661 8.4139E4
    H2/3.0/
    CO/2.25/
    CO2/3.0/
    H2O/9.0/
    CH3OCH3/5.0/
    CH4/3.0/
    C2H6/4.5/
    LOW/1.72E59 -1.14E1 9.32956E4/
    TROE/1.0E0 1.0E-30 8.8E2/
CH3OCH2O2=>2CH2O+OH    1.0E0 1.0 1.0E0
    PLOG/1.0E-3 2.06E36 -8.32E0 3.3415E4/
    PLOG/1.0E-2 2.07E39 -8.86E0 3.5842E4/
    PLOG/1.0E0 1.12E40 -8.42E0 3.9835E4/
    PLOG/2.0E0 9.72E38 -8.04E0 3.9923E4/
    PLOG/1.0E1 6.28E35 -6.97E0 3.99E4/
    PLOG/2.0E1 1.6E34 -6.46E0 3.985E4/
    PLOG/5.0E1 8.32E31 -5.75E0 3.9719E4/
    PLOG/1.0E2 1.22E30 -5.2E0 3.9549E4/
HO2CH2OCHO=OCH2OCHO+OH    4.0E15 0.0 4.09E4
OCH2OCHO=HOCH2OCO    1.0E11 0.0 1.4E4
OCH2OCHO=HOCHO+HCO    3.39E11 0.213 1.494E4
    PLOG/1.0E-3 1.647E22 -4.5E0 1.36E4/
    PLOG/4.0E-3 4.398E23 -4.73E0 1.43E4/
    PLOG/1.8E-2 1.145E25 -4.96E0 1.512E4/
    PLOG/7.5E-2 1.439E26 -5.1E0 1.596E4/
    PLOG/3.16E-1 2.363E26 -4.97E0 1.662E4/
    PLOG/1.334E0 1.213E25 -4.38E0 1.681E4/
    PLOG/5.623E0 1.346E22 -3.31E0 1.64E4/
    PLOG/2.3714E1 1.583E18 -1.98E0 1.554E4/
    PLOG/1.0E2 4.147E14 -8.0E-1 1.463E4/
HOCH2OCO=CH2OH+CO2    1.117E17 -1.526 2.07719E4
HOCH2OCO=HOCH2O+CO    2.92E18 -1.965 1.9619E4
CH3O+HCO=CH3OH+CO    9.0E13 0.0 0.0E0
C3H8(+M)=CH3+C2H5(+M)    1.29E37 -5.84 9.738E4
    H2/2.0/
    H2O/6.0/
    AR/0.7/
    CO/1.5/
    CO2/2.0/
    CH4/2.0/
    C2H6/3.0/
    HE/0.7/
    LOW/5.64E74 -1.574E1 9.8714E4/
    TROE/3.1E-1 5.0E1 3.0E3 9.0E3/
NC3H7+H=C3H8    1.0E14 0.0 0.0E0
C3H8+O2=NC3H7+HO2    6.0E13 0.0 5.229E4
C3H8+H=NC3H7+H2    3.49E5 2.69 6.45E3
C3H8+O=NC3H7+OH    3.71E6 2.4 5.505E3
C3H8+OH=NC3H7+H2O    2.732E7 1.811 8.684E2
C3H8+HO2=NC3H7+H2O2    4.08E1 3.59 1.716E4
C3H8+CH3=NC3H7+CH4    9.04E-1 3.65 7.154E3
C3H8+C2H3=NC3H7+C2H4    1.0E11 0.0 1.04E4
C3H8+C2H5=NC3H7+C2H6    1.0E11 0.0 1.04E4
C3H8+CH3O=NC3H7+CH3OH    3.0E11 0.0 7.0E3
C3H8+CH3O2=NC3H7+CH3O2H    1.386E0 3.97 1.828E4
C3H8+C2H5O2=NC3H7+C2H5O2H    1.386E0 3.97 1.828E4
C3H8+CH3CO3=NC3H7+CH3CO3H    1.7E13 0.0 2.046E4
C3H8+O2CHO=NC3H7+HO2CHO    5.52E4 2.55 1.648E4
O2+NC3H7=HO2+C3H6    1.0E11 0.0 0.0E0
    PLOG/1.0E-2 5.05E10 2.06E-2 5.01905E2/
    PLOG/1.0E-1 7.47E15 -1.45E0 4.1129E3/
    PLOG/1.0E0 1.18E19 -2.35E0 7.29953E3/
    PLOG/1.0E1 2.63E0 3.46E0 2.48117E3/
    PLOG/1.0E2 7.37E2 2.71E0 5.49647E3/
CH2(S)+C2H4=C3H6    4.82E57 -14.3 1.71E4
    DUP
    PLOG/1.0E-2 4.82E57 -1.43E1 1.71E4/
    PLOG/1.0E-1 3.84E59 -1.44E1 1.84E4/
    PLOG/1.0E0 2.13E58 -1.35E1 2.04E4/
    PLOG/1.0E1 8.48E52 -1.16E1 2.07E4/
    PLOG/1.0E2 6.07E47 -9.85E0 2.21E4/
CH2(S)+C2H4=C3H6    4.82E57 -14.3 1.71E4
    DUP
    PLOG/1.0E-2 1.15E45 -1.11E1 6.1452E3/
    PLOG/1.0E-1 1.83E45 -1.07E1 6.6385E3/
    PLOG/1.0E0 1.3E40 -8.77E0 5.8638E3/
    PLOG/1.0E1 2.27E32 -6.14E0 4.3179E3/
    PLOG/1.0E2 1.28E24 -3.49E0 2.5299E3/
CH2(S)+C2H4=C2H3+CH3    1.77E19 -1.94 6.79E3
    DUP
    PLOG/1.0E-2 1.77E19 -1.94E0 6.79E3/
    PLOG/1.0E-1 1.68E19 -1.8E0 4.31E3/
    PLOG/1.0E0 4.16E24 -3.19E0 9.76E3/
    PLOG/1.0E1 7.89E24 -3.07E0 1.39E4/
    PLOG/1.0E2 7.36E29 -4.28E0 2.38E4/
CH2(S)+C2H4=C2H3+CH3    1.77E19 -1.94 6.79E3
    DUP
    PLOG/1.0E-2 4.3E12 1.9E-1 -1.1041E2/
    PLOG/1.0E-1 2.26E11 5.4E-1 4.781E1/
    PLOG/1.0E0 4.92E9 1.02E0 5.9977E2/
    PLOG/1.0E1 1.47E8 1.33E0 1.2284E3/
    PLOG/1.0E2 8.11E10 5.5E-1 5.5065E3/
C3H6=C2H3+CH3    1.88E78 -18.7 1.3E5
    DUP
    PLOG/1.0E-2 1.88E78 -1.87E1 1.3E5/
    PLOG/1.0E-1 8.73E76 -1.79E1 1.32E5/
    PLOG/1.0E0 5.8E75 -1.72E1 1.34E5/
    PLOG/1.0E1 8.12E71 -1.58E1 1.36E5/
    PLOG/1.0E2 2.15E64 -1.34E1 1.35E5/
C3H6=C2H3+CH3    1.88E78 -18.7 1.3E5
    DUP
    PLOG/1.0E-2 1.69E59 -1.36E1 1.1329E5/
    PLOG/1.0E-1 2.0E60 -1.37E1 1.1489E5/
    PLOG/1.0E0 6.7E54 -1.18E1 1.1384E5/
    PLOG/1.0E1 1.06E47 -9.27E0 1.1151E5/
    PLOG/1.0E2 7.29E38 -6.7E0 1.0874E5/
C3H6+O=H+CH3COCH2    5.1912614E9 0.91679835 1.4207081E3
    PLOG/1.0E-1 3.9629464E7 1.5035212E0 -2.5778745E2/
    PLOG/1.0E0 3.0333876E7 1.5363723E0 -3.3421487E2/
    PLOG/1.0E1 8.9995004E7 1.4046857E0 2.1810535E1/
    PLOG/3.0E1 3.0260423E8 1.2594188E0 4.3859573E2/
    PLOG/1.0E2 5.1912614E9 9.1679835E-1 1.4207081E3/
C3H6+O=C2H4+CH2O    2.11E12 0.36357832 3.6251147E3
    PLOG/1.0E-1 3.239515E10 8.6277366E-1 2.1012156E3/
    PLOG/1.0E0 3.7102143E10 8.4675413E-1 2.152084E3/
    PLOG/1.0E1 6.4621495E10 7.7988106E-1 2.3372114E3/
    PLOG/3.0E1 1.79581E11 6.5836787E-1 2.7279312E3/
    PLOG/1.0E2 2.11E12 3.6357832E-1 3.6251147E3/
C3H6+O=C2H5+HCO    4.5392427E9 0.46990082 3.3909714E3
    PLOG/1.0E-1 3.81938E20 -2.8445151E0 2.2008093E3/
    PLOG/1.0E0 6.782E23 -3.7431204E0 5.0411938E3/
    PLOG/1.0E1 5.78554E21 -3.0582581E0 6.6882314E3/
    PLOG/3.0E1 4.41563E16 -1.5513902E0 5.3826196E3/
    PLOG/1.0E2 4.5392427E9 4.6990082E-1 3.3909714E3/
C3H6+O=CH3+CH2CHO    6.118106E10 0.72471172 1.7372183E3
    PLOG/1.0E-1 7.1169661E8 1.2452729E0 -2.2913843E2/
    PLOG/1.0E0 2.7972334E9 1.0825886E0 2.8259222E2/
    PLOG/1.0E1 1.8003295E10 8.6375535E-1 1.0689554E3/
    PLOG/3.0E1 3.3952128E10 7.9012293E-1 1.3842371E3/
    PLOG/1.0E2 6.118106E10 7.2471172E-1 1.7372183E3/
C3H6+O=CO+C2H6    2.8063963E10 -0.15197791 8.5133477E3
    PLOG/1.0E-1 3.30559E19 -3.0550032E0 4.0607322E3/
    PLOG/1.0E0 4.47648E13 -1.2992022E0 2.5097214E3/
    PLOG/1.0E1 7.29311E16 -2.0833492E0 7.7710391E3/
    PLOG/3.0E1 2.2306699E1 2.136199E0 -3.9348716E3/
    PLOG/1.0E2 2.8063963E10 -1.5197791E-1 8.5133477E3/
C3H6+O=H2+C2H4+CO    1.9064245E5 1.4148871 1.8470398E3
    PLOG/1.0E-1 1.40605E19 -2.7684405E0 1.5882145E3/
    PLOG/1.0E0 1.42188E22 -3.5758173E0 4.455772E3/
    PLOG/1.0E1 4.5976E19 -2.7595153E0 6.0180806E3/
    PLOG/3.0E1 5.57149E13 -1.0280579E0 4.2239531E3/
    PLOG/1.0E2 1.9064245E5 1.4148871E0 1.8470398E3/
C3H6+H=NC3H7    1.0E0 1.0 0.0E0
    DUP
    PLOG/1.3E-3 7.99E81 -2.3161E1 2.2239E4/
    PLOG/4.0E-2 4.24E68 -1.8427E1 1.9665E4/
    PLOG/1.0E0 1.04E49 -1.15E1 1.5359E4/
    PLOG/1.0E1 6.2E41 -8.892E0 1.4637E4/
    PLOG/1.0E2 4.22E27 -4.39E0 9.3458E3/
C3H6+H=NC3H7    1.0E0 1.0 0.0E0
    DUP
    PLOG/1.3E-3 1.85E26 -5.83E0 3.8658E3/
    PLOG/4.0E-2 2.82E30 -6.49E0 5.4708E3/
    PLOG/1.0E0 3.78E28 -5.57E0 5.6251E3/
    PLOG/1.0E1 1.46E25 -4.28E0 5.2478E3/
    PLOG/1.0E2 1.0E-10 0.0E0 0.0E0/
C3H6+H=C2H4+CH3    1.0E0 1.0 1.0E0
    DUP
    PLOG/1.3E-3 1.54E9 1.35E0 2.542E3/
    PLOG/4.0E-2 7.88E10 8.7E-1 3.5996E3/
    PLOG/1.0E0 2.67E12 4.7E-1 5.4311E3/
    PLOG/1.0E1 9.25E22 -2.6E0 1.2898E4/
    PLOG/1.0E2 1.32E23 -2.42E0 1.65E4/
C3H6+H=C2H4+CH3    1.0E0 1.0 1.0E0
    DUP
    PLOG/1.3E-3 1.0E-10 0.0E0 0.0E0/
    PLOG/4.0E-2 1.0E-10 0.0E0 0.0E0/
    PLOG/1.0E0 1.0E-10 0.0E0 0.0E0/
    PLOG/1.0E1 1.24E5 2.52E0 3.6791E3/
    PLOG/1.0E2 2.51E3 2.91E0 3.9809E3/
C2H4+CH3=NC3H7    1.0E0 1.0 1.0E0
    DUP
    PLOG/1.3E-3 8.67E48 -1.254E1 1.8206E4/
    PLOG/4.0E-2 1.06E49 -1.204E1 2.0001E4/
    PLOG/1.0E0 7.67E47 -1.117E1 2.2366E4/
    PLOG/1.0E1 1.81E45 -1.003E1 2.3769E4/
    PLOG/1.0E2 2.04E40 -8.25E0 2.4214E4/
C2H4+CH3=NC3H7    1.0E0 1.0 1.0E0
    DUP
    PLOG/1.3E-3 1.12E43 -1.13E1 1.308E4/
    PLOG/4.0E-2 7.28E39 -9.88E0 1.3164E4/
    PLOG/1.0E0 2.6E33 -7.46E0 1.2416E4/
    PLOG/1.0E1 3.85E27 -5.38E0 1.1455E4/
    PLOG/1.0E2 1.66E21 -3.17E0 1.0241E4/
C2H3+CH2O=C2H4+HCO    1.0E11 0.0 0.0E0
    PLOG/1.0E-3 1.11E7 1.09E0 1.8072E3/
    PLOG/1.0E-2 2.47E7 9.93E-1 1.9949E3/
    PLOG/1.0E-1 2.47E8 7.04E-1 2.5962E3/
    PLOG/1.0E0 1.42E10 2.09E-1 3.9342E3/
    PLOG/1.0E1 3.45E13 -7.26E-1 6.9443E3/
    PLOG/1.0E2 3.31E14 -8.66E-1 1.09657E4/
    PLOG/1.0E3 1.65E1 3.17E0 9.3998E3/
C3H6+OH=C2H3OH+CH3    1.29E6 1.65 1.233E3
    PLOG/1.3E-3 1.29E6 1.65E0 1.233E3/
    PLOG/1.0E-2 1.82E4 2.1E0 1.162E3/
    PLOG/1.3E-2 2.04E3 2.48E0 1.128E3/
    PLOG/2.5E-2 2.88E2 2.8E0 1.152E3/
    PLOG/1.0E-1 1.4E1 3.21E0 1.208E3/
    PLOG/1.315E-1 7.71E0 3.29E0 1.216E3/
    PLOG/1.0E0 1.13E4 2.5E0 3.238E3/
    PLOG/1.0E1 2.41E19 -1.74E0 1.3107E4/
    PLOG/1.0E2 3.3E-1 3.7E0 3.665E3/
C3H6+OH=CH3CHO+CH3    6.93E5 1.49 -5.36E2
    PLOG/1.3E-3 6.93E5 1.49E0 -5.36E2/
    PLOG/1.0E-2 5.94E3 2.01E0 -5.6E2/
    PLOG/1.3E-2 1.1E3 2.22E0 -6.8E2/
    PLOG/2.5E-2 1.07E2 2.5E0 -7.59E2/
    PLOG/1.0E-1 7.83E-1 3.1E0 -9.19E2/
    PLOG/1.315E-1 3.07E-1 3.22E0 -9.46E2/
    PLOG/1.0E0 3.16E-4 4.05E0 -1.144E3/
    PLOG/1.0E1 7.59E-6 4.49E0 -6.8E2/
    PLOG/1.0E2 5.45E-5 4.22E0 1.141E3/
C3H6+OH=C3H6OH2-1    5.1E54 -20.7 3.2402E4
    DUP
    PLOG/1.3E-3 2.14E59 -1.584E1 1.1594E4/
    PLOG/1.0E-2 2.43E59 -1.551E1 1.2898E4/
    PLOG/1.3E-2 9.3E58 -1.534E1 1.2913E4/
    PLOG/2.5E-2 8.83E57 -1.493E1 1.2936E4/
    PLOG/1.0E-1 4.5E55 -1.404E1 1.2945E4/
    PLOG/1.315E-1 1.33E55 -1.385E1 1.2887E4/
    PLOG/1.0E0 5.18E49 -1.204E1 1.1493E4/
    PLOG/1.0E1 2.14E41 -9.35E0 8.921E3/
    PLOG/1.0E2 7.65E31 -6.31E0 6.088E3/
C3H6+OH=C3H6OH2-1    5.1E54 -20.7 3.2402E4
    DUP
    PLOG/1.3E-3 7.68E77 -2.07E1 3.2402E4/
    PLOG/1.0E-2 9.13E76 -2.0E1 3.3874E4/
    PLOG/1.3E-2 3.55E75 -1.958E1 3.2874E4/
    PLOG/2.5E-2 1.23E73 -1.879E1 3.1361E4/
    PLOG/1.0E-1 3.45E67 -1.701E1 2.7909E4/
    PLOG/1.315E-1 2.41E66 -1.664E1 2.7162E4/
    PLOG/1.0E0 6.5E58 -1.417E1 2.3079E4/
    PLOG/1.0E1 2.53E53 -1.223E1 2.2976E4/
    PLOG/1.0E2 4.78E47 -1.023E1 2.3772E4/
C3H6OH2-1=C2H3OH+CH3    2.689E9 1.319 2.948E4
CH3COCH3+H=C3H6OH2-1    8.0E12 0.0 9.5E3
CH3+CH3CHO=IC3H7O    1.0E11 0.0 9.256E3
CH3COCH3+H=IC3H7O    2.0E12 0.0 7.27E3
C3H6OH2-1+O2=CH3COCH3+HO2    1.5E12 0.0 5.0E3
IC3H7O+O2=CH3COCH3+HO2    9.09E9 0.0 3.9E2
!\Aceton SubMech
CH3COCH3=CH3CO+CH3    2.05E58 -12.796 1.000301E5
    PLOG/1.0E-2 2.05E58 -1.2796E1 1.000301E5/
    PLOG/1.0E-1 3.3E51 -1.0574E1 9.82212E4/
    PLOG/1.0E0 1.31E42 -7.657E0 9.46606E4/
    PLOG/1.0E1 2.16E33 -4.989E0 9.09165E4/
    PLOG/1.0E2 9.4E28 -3.669E0 8.90228E4/
CH3COCH2+H=CH3COCH3    1.0E13 0.0 0.0E0
CH3COCH3+O=CH3COCH2+OH    5.13E11 0.211 4.89E3
CH3COCH3+O2=CH3COCH2+HO2    6.03E13 0.0 4.85E4
CH3COCH3+HO2=CH3COCH2+H2O2    1.7E13 0.0 2.046E4
CH3COCH3+CH3O2=CH3COCH2+CH3O2H    1.7E13 0.0 2.046E4
!#####################################################################
C3KET21=CH3COCH2O+OH    1.0E11 0.0 0.0E0
    PLOG/1.0E-2 5.2E64 -1.59E1 5.66501E4/
    PLOG/1.0E-1 2.19E60 -1.42E1 5.64797E4/
    PLOG/1.0E0 1.08E52 -1.15E1 5.45804E4/
    PLOG/1.0E1 1.56E41 -7.97E0 5.1321E4/
    PLOG/1.0E2 1.03E31 -4.76E0 4.79219E4/
CH2CO+CH3=CH3COCH2    1.76E4 2.48 6.13E3
CH3COCH2+CH3O2=CH3COCH2O+CH3O    1.205E13 0.0 0.0E0
CH3COCH2+O2=CH3COCH2O2    1.2E11 0.0 -1.1E3
CH3COCH2O=CH3CO+CH2O    5.872E20 -2.4218 1.05358E4
CH2O+CH3COCH2O2=HCO+C3KET21    1.288E11 0.0 9.0E3
HO2+CH3COCH2O2=C3KET21+O2    1.0E12 0.0 0.0E0
CH3COCH3+CH3COCH2O2=CH3COCH2+C3KET21    1.0E11 0.0 5.0E3
CH3COCH2+HO2=CH3COCH2O+OH    2.41E13 0.0 0.0E0
DTBP=2TC4H9O    2.941E15 0.0 3.6672051E4
TC4H9O=CH3COCH3+CH3    5.08E13 0.223 1.14E4
END
