elements
c    h     o      n      ar      he
end

species
o2        n2         co2        h2o        co         h2         oh        h2o2
ho2       h          o          ch4        ch3o       ch2o       hco       ch3
c2h3      c2h4       c2h5              c3h5       c3h6       c3h7      c2h6
ch2oh     ch3oh      c2h2       ch2co      hcco       he         ar          
c5h11oh  c5h10oh   c5h10oho2  c5h9ohooh  c5h9ohooho2
c5ohket     ch3cho  ch3co      ch3o2   ch2(s) 
c3h5o     c2h3cho    c2h3co    ch2cho   ch2    
nc4h9cho   nc4h9co           
end

reactions
! n-petanol sub-mechanism
c5h11oh+h=c5h10oh+h2                    4.050E+05  2.680  2.915e+03 
c5h11oh+oh=c5h10oh+h2o                  6.430E+03  2.890 -2.291e+03 
c5h11oh+o2=ho2+c5h10oh                  3.760E+12  0.000  4.680e+04 
c5h11oh+ho2=c5h10oh+h2o2                2.740E-04  5.260  8.268e+03 
c5h10oh+o2=c5h10oho2                    5.990E+12  0.000  0.000e+00 
c5h10oho2=c5h9ohooh                     1.500E+11  0.000  2.045e+04 
c5h9ohooh+o2=c5h9ohooho2                1.260E+12  0.000  0.000e+00 
c5h9ohooho2=c5ohket+oh                  4.100E+08  0.000  1.545e+04 
c5ohket=>oh+ch2co+ch2oh+ch3cho          1.670E+14  0.000  3.900e+04 
c5h10oh+o2<=>nc4h9cho+ho2               7.670E+13  0.000  4.690e+03 
nc4h9cho+oh<=>nc4h9co+h2o               8.690E+12  0.000  5.000e+02 
nc4h9cho+ho2<=>nc4h9co+h2o2             4.660E+11  0.000  1.000e+04 
nc4h9co=>c2h5+c2h4+co                   7.610E+13  0.000  2.870e+04 
c5h10oh=ch3cho+c3h7                     4.310E+12  0.000  2.870e+04 
ch3cho+h<=>ch3co+h2                     1.310e+05  2.580     1220.0
ch3cho+oh<=>ch3co+h2o                   3.370e+12  0.000     -619.0
ch3cho(+m)<=>ch3+hco(+m)                2.450e+22 -1.740  8.636e+04
low/1.030e+59  -11.300    95912.5/
troe/  2.490e-003  7.181e+002  6.089e+000  3.780e+003/
ch3cho(+m)<=>ch4+co(+m)                 2.720e+21 -1.740    86355.0
low/1.144e+58  -11.300    95912.5/
troe/  2.490e-003  7.181e+002  6.089e+000  3.780e+003/
ch3co(+m)<=>ch3+co(+m)                  1.070e+12  0.630    16900.0
low/5.650e+18   -0.970    14600.0/
troe/  6.290e-001  8.730e+009  5.520e+000  7.600e+007/

! c2-c3 sub-mechanism

ch3+c2h4<=>c3h7 1.760E+04 2.48 6.130E+03
h+c3h6<=>c3h7 2.500E+11 0.51 2.620E+03
c3h6+oh<=>c3h5+h2o 1.97E+06 2.2 5.40E+02
c3h6+h<=>c3h5+h2 1.730e+05 2.500 2.492e+03
c3h6+h<=>c2h4+ch3 3.30E+24 -3.04 15610.0
c3h6+o<=>c2h5+hco 1.580e+07 1.760 -1.216e+03
c3h5+ho2<=>c3h5o+oh 7.000e+12 0.000 -1.000e+03
c2h2+ch3<=>c3h5  2.40E+38 -8.21 17100.0

c3h5 +h(+m)<=>c3h6(+m) 2.00E+14 0.0 0.0
low/ 1.33e+60 -12.00 5967.8/ 
troe/ 0.020 1096.6 1096.6 6859.5/ 
h2/ 2/ h2o/ 6/ ch4/ 2/ co/ 1.5/ co2/ 2/ c2h6/ 3/ ar/ 0.7/ 
c3h5o<=>c2h3cho+h 1.000e+14 0.000 2.910e+04
c2h3+ch2o<=>c3h5o 1.500e+11 0.000 1.060e+04
c2h3cho+ho2<=>c2h3co+h2o2 3.010e+12 0.000 1.192e+04
c2h3cho+h<=>c2h3co+h2 1.340e+13 0.000 3.300e+03
c2h3cho+oh<=>c2h3co+h2o 9.240e+06 1.500 -9.620e+02
c2h3+co<=>c2h3co 1.510e+11 0.000 4.810e+03
c2h4+h(+m)<=>c2h5(+m) 5.27E+09 1.183 1272.7
low/ 2.027E+40 -6.642E+00 5.769E+03/ 
troe/ 9.76E-01 9.99E+09 3.84E+02 3.29E+09/ 
h2/ 2.0/ h2o/ 6.0/ ch4/ 2.0/ co/ 1.5/ co2/ 2.0/ c2h6/ 3.0/ ar/ 0.7/ 
c2h5+o2<=>c2h4+ho2 1.705E+45 -11.49 1.459E+04
c2h5+ho2<=>ch3+ch2o+oh 1.100e+13 0.000 0.000e+00
c2h4+oh<=>c2h3+h2o 2.23e+4 2.745 2.2155e+3
c2h4+o<=>ch3+hco 6.775e+06 1.880 1.830e+02
c2h4+o<=>ch2cho+h 6.775e+05 1.880 1.830e+02
c2h3    +o2    <=>ch2o     +hco           1.700e+029  -5.312     6503.1
c2h3    +o2     =>h        +co  +ch2o     5.190e+015  -1.260     3312.6
c2h3+o2<=>ch2cho+o 7.00E+14 -0.611 5262.43
ch2cho(+m)<=>ch2co+h(+m) 1.43E+15 -1.50E-01 4.56E+04
low/ 6.00E+29 -3.8 43423.898/ 
troe/ 9.85E-01 3.93E+02 9.80E+09 5.00E+09/ 
ch2cho(+m)<=>ch3+co(+m) 2.93E+12 2.90E-01 4.03E+04
low/ 9.52E+33 -5.07E+00 4.13E+04/ 
troe/ 7.13E-17 1.15E+03 4.99E+09 1.79E+09/ 
ch3co(+m)<=>ch2co+h(+m) 9.41300E+07 1.91660E+00 4.49872E+04
low/ 1.51600E+51 -1.02700E+01 5.53900E+04/ 
troe/ 6.008840E-01 8.103411E+09 6.676688E+02 5.000000E+09/ 
c2h3+h<=>c2h2+h2 3.0e+14 0.00 0.000e+00
c2h2    +h(+m) <=>c2h3(+m)                 3.110e+11    0.58  2.589e+03
 low                                 /  2.254e+40  -7.269     6577.     /
 troe/ 1.0 1.e-15 675. 1.e+15/
 h2/2/ h2o/5/ co/2/ co2/3/
c2h2+o<=>hcco+h 2.958E+08 1.28 2.472E+03
c2h2+o<=>ch2+co 7.395E+08 1.28 2.472E+03
ch3+ch3(+m)<=>c2h6(+m) 2.277e+15 -0.69 1.7486e+02
low/ 8.054e+31 -3.75 9.816e+02/ 
troe/ 0.0 570.0 1.e+30 1.e+30/ 
h2o/ 5/ co/ 2/ co2/ 3/ 
c2h5+h(+m)<=>c2h6(+m) 5.210e+17 -0.990 1.580e+03
low/ 1.9900e+41 -7.0800e+00 6.6850e+03/ 
troe/ 8.4200e-01 1.2500e+02 2.2190e+03 6.8820e+03/ 
h2/ 2/ h2o/ 6/ ar/ .7/ co/ 1.5/ co2/ 2/ ch4/ 2/ c2h6/ 3/ he/ .7/ 
c2h6+h<=>c2h5+h2 1.150e+08 1.900 7.530e+03
c2h6+o<=>c2h5+oh 3.550e+06 2.400 5.830e+03
c2h6+oh<=>c2h5+h2o 1.480e+07 1.900 9.500e+02
ch2co+h<=>hcco+h2 1.40068E15 -0.17131 8783.15059
ch2co+h<=>ch3+co 7.70374E+13 -0.17131 4183.15059
ch2co+oh<=>hcco+h2o 1.000e+13 0.000 2.000e+03
ch2co+oh<=>ch2oh+co 2.000e+12 0.000 -1.010e+03
hcco+o2=>oh+co+co 1.91E+11 -0.02 1.02E+03
hcco+o2=>co2+co+h 4.78E+12 -0.142 1.15E+03

! c0-c1 sub-mechanism

h+o2<=>o+oh 9.65e+14 -0.262 1.62e+04
o+h2<=>h+oh 5.080e+04 2.670 6.292e+03
oh+h2<=>h+h2o 2.247e8 1.520 3.450e+03
o+h2o<=>oh+oh 3.445e+06 2.020 1.340e+04
h2+m<=>h+h+m 4.577e+19 -1.400 1.044e+05
h2/ 2.5/ h2o/ 12/ co/ 1.9/ co2/ 3.8/ he/ .83/ ch4/ 2/ c2h6/ 3/ 
o+o+m<=>o2+m 6.165e+15 -0.500 0.000e+00
h2/ 2.5/ h2o/ 12/ ar/ .83/ co/ 1.9/ co2/ 3.8/ he/ .83/ ch4/ 2/ c2h6/ 3/ 
o+h+m<=>oh+m 4.714e+18 -1.000 0.000e+00
h2/ 2.5/ h2o/ 12/ ar/ .75/ co/ 1.5/ co2/ 2/ he/ .75/ ch4/ 2/ c2h6/ 3/ 
h+oh+m<=>h2o+m 2.5e+22 -2.000 0.000e+00
h2/ 2.5/ h2o/ 12/ ar/ 0.38/ he/ 0.38/ co/ 1.9/ co2/ 3.8/ ch4/ 2/ c2h6/ 3/ 
h+o2(+m)<=>ho2(+m) 4.650e+12 0.440 0.000e+00
low/ 1.737e+19 -1.23 0.000e+00/ 
troe/ 0.67 1e-30 1e30 1e30/ 
h2/ 1.3/ co/ 1.9/ co2/ 3.8/ he/ 0.0/ h2o/ 10.0/ ar/ 0.00/ ch4/ 2/ c2h6/ 3/ 
h+o2(+ar)<=>ho2(+ar) 4.650e+12 0.440 0.000e+00
low/ 6.810e+18 -1.200 0.0/ 
troe/ 0.70 1.0e-30 1.0e+30 1.0e+30/ 
h+o2(+he)<=>ho2(+he) 4.650e+12 0.440 0.000e+00
low/ 6.128e+18 -1.20 0.000e+00/ 
troe/ 0.59 1e-30 1e30 1e30/ 
ho2+h<=>oh+oh 7.079e+13 0.00 2.950e+02
h2+o2<=>h+ho2 5.176e+05 2.433 53502.0
ho2+o<=>oh+o2 3.250e+13 0.000 0.000e+00
ho2+oh<=>h2o+o2 2.890e+13 0.000 -4.970e+02
ho2+ho2<=>h2o2+o2 1.030e+14 0.000 1.104e+04
dup
ho2+ho2<=>h2o2+o2 1.940e+11 0.000 -1.409e+03
dup
h2o2(+m)<=>oh+oh(+m) 2.00e+12 0.90 4.8749E+04
low/ 3.658e+24 -2.30 4.8749E+04/ 
troe/ 0.43 1e-30 1e+30/ 
ar/ 0.68/ o2/ 0.68/ h2/ 2.5/ co/ 1.9/ co2/ 3.8/ h2o/ 0.0/ he/ 0.0/ 
h2o2/ 5.2/ ch4/ 2/ c2h6/ 3/ 
h2o2(+he)<=>oh+oh(+he) 2.00e+12 0.90 4.8749E+04
low/ 1.609e+24 -2.30 4.8749E+04/ 
troe/ 0.44 1e-30 1e+30/ 
h2o2(+h2o)<=>oh+oh(+h2o) 2.00e+12 0.90 4.8749E+04
low/ 1.865e+25 -2.30 4.8749E+04/ 
troe/ 0.51 1e-30 1e+30/ 
h2o2+h<=>h2o+oh 2.410e+13 0.000 3.970e+03
h2o2+h<=>h2+ho2 2.150e+10 1.000 6.000e+03
h2o2+o<=>oh+ho2 9.550e+06 2.000 3.970e+03
h2o2+oh<=>h2o+ho2 1.74e+12 0.000 3.18e+02
dup
h2o2+oh<=>h2o+ho2 7.59e+13 0.000 7.269e+03
dup
co+o+m<=>co2+m 3.00e+14 0 3000
h2/ 2.5/ h2o/ 6/ co/ 1.9/ co2/ 3.8/ he/ .5/ ch4/ 2/ c2h6/ 3/ 
co+o2<=>co2+o 1.050e+12 0.000 4.254e+04
co+oh<=>co2+h 6.341e+04 2.053 -355.67
duplicate
co+oh<=>co2+h 5.757e+12 -0.664 331.83
duplicate
co+ho2<=>co2+oh 1.570e+05 2.180 1.794e+04
hco+m<=>h+co+m 4.750e+11 0.660 1.487e+04
h2/ 2/ h2o/ 12/ co/ 1.5/ co2/ 2/ ch4/ 2/ c2h6/ 3/ 
hco+o2<=>co+ho2 7.580e+12 0.000 4.100e+02
hco+h<=>co+h2 7.340e+13 0.000 0.000e+00
hco+o<=>co+oh 3.020e+13 0.000 0.000e+00
hco+o<=>co2+h 3.000e+13 0.000 0.000e+00
hco+oh<=>co+h2o 1.020e+14 0.000 0.000e+00
hco+ho2=>co2+h+oh 3.000e+13 0.000 0.000e+00
hco+hco=>h2+co+co 3.000e+12 0.000 0.000e+00
hco+ch3<=>ch4+co 2.650e+13 0.000 0.000e+00
ch2o+o2<=>hco+ho2 8.070e+15 0.000 5.342e+04
hco+hco<=>ch2o+co 1.800e+13 0.000 0.000e+00
hco+h(+m)<=>ch2o(+m) 1.090e+12 0.480 -2.600e+02
low/ 1.3500e+24 -2.5700e+00 1.4250e+03/ 
troe/ 7.8240e-01 2.7100e+02 2.7550e+03 6.5700e+03/ 
h2/ 2/ h2o/ 6/ ar/ .7/ co/ 1.5/ co2/ 2/ ch4/ 2/ c2h6/ 3/ he/ .7/ 
co+h2(+m)<=>ch2o(+m) 4.300e+07 1.500 7.960e+04
low/ 5.0700e+27 -3.4200e+00 8.4348e+04/ 
troe/ 9.3200e-01 1.9700e+02 1.5400e+03 1.0300e+04/ 
h2/ 2/ h2o/ 6/ ar/ .7/ co/ 1.5/ co2/ 2/ ch4/ 2/ c2h6/ 3/ he/ .7/ 
ch2o+oh<=>hco+h2o 7.820e+07 1.630 -1.055e+03
ch2o+h<=>hco+h2 5.740e+07 1.900 2.740e+03
ch2o+o<=>hco+oh 6.260e+09 1.150 2.260e+03
ch2o+ch3<=>hco+ch4 3.830e+01 3.360 4.312e+03
ch2o+ho2<=>hco+h2o2 1.8800e+04 2.700 1.152e+04
ch3o(+m)<=>ch2o+h(+m) 6.800e+13 0.000 2.617e+04
low/ 1.8670e+25 -3.0000e+00 2.4307e+04/ 
troe/ 9.0000e-01 2.5000e+03 1.3000e+03 1.0000e+99/ 
h2/ 2/ h2o/ 6/ co/ 1.5/ co2/ 2/ ch4/ 2/ c2h6/ 3/ 
ch3o+o2<=>ch2o+ho2 4.380e-19 9.500 -5.501e+03
ch2o+ch3o<=>ch3oh+hco 6.620e+11 0.000 2.294e+03
ch3+ch3oh<=>ch4+ch3o 1.440e+01 3.100 6.935e+03
ch3o+ch3<=>ch2o+ch4 1.200e+13 0.000 0.000e+00
ch3o+h<=>ch2o+h2 2.000e+13 0.000 0.000e+00
ch3o+ho2<=>ch2o+h2o2 3.010e+11 0.000 0.000e+00
ch2o+h(+m)<=>ch2oh(+m) 5.400e+11 0.454 3.600e+03
low/ 1.2700e+32 -4.8200e+00 6.5300e+03/ 
troe/ 7.1870e-01 1.0300e+02 1.2910e+03 4.1600e+03/ 
h2/ 2/ h2o/ 6/ co/ 1.5/ co2/ 2/ ch4/ 2/ c2h6/ 3/ 
ch2oh+o2<=>ch2o+ho2 1.510e+15 -1.000 0.000e+00
dup
ch2oh+o2<=>ch2o+ho2 2.410e+14 0.000 5.017e+03
dup
ch2oh+h<=>ch2o+h2 6.000e+12 0.000 0.000e+00
ch2oh+ho2<=>ch2o+h2o2 1.200e+13 0.000 0.000e+00
ch2oh+hco<=>ch2o+ch2o 1.800e+14 0.000 0.000e+00
ch2oh+ch3o<=>ch2o+ch3oh 2.400e+13 0.000 0.000e+00
ch3oh+hco<=>ch2oh+ch2o 9.630e+03 2.900 1.311e+04
oh+ch2oh<=>h2o+ch2o 2.400e+13 0.000 0.000e+00
o+ch2oh<=>oh+ch2o 4.200e+13 0.000 0.000e+00
ch2oh+ch2oh<=>ch2o+ch3oh 3.000e+12 0.000 0.000e+00
ch3oh(+m)<=>ch3+oh(+m) 2.084E+18 -0.615 92540.551
low/ 1.50E+43 -6.99452 97992.19126/ 
troe/ -4.748E-01 35578.477 1116.46 9.023E+03/ 
ch3oh(+m)<=>ch2(s)+h2o(+m) 3.121E+18 -1.017 91711.972
low/ 1.43E+47 -8.22668 99417.09727/ 
troe/ 2.545E+00 3289.782 47315.58 4.711E+04/ 
ch3oh(+m)<=>ch2oh+h(+m) 7.896E-03 5.038 84467.37
low/ 3.39E+42 -7.24388 105230.2692/ 
troe/ -7.391E+01 37053.795 41496.40 5.220E+03/ 
ch3oh+h<=>ch2oh+h2 3.07E+05 2.55 5.44E+03
ch3oh+h<=>ch3o+h2 1.99E+05 2.56 1.03E+04
ch3oh+o<=>ch2oh+oh 3.880e+05 2.500 3.080e+03
ch3oh+oh<=>ch2oh+h2o 3.08E+04 2.65 -806.7
ch3oh+oh<=>ch3o+h2o 1.50E+02 3.03 -763
ch3oh+o2<=>ch2oh+ho2 2.050e+13 0.000 4.490e+04
ch3oh+ho2<=>ch2oh+h2o2 1.080e+04 2.550 1.053e+04
ch3oh+ch3<=>ch2oh+ch4 3.190e+01 3.170 7.172e+03
ch3o+ch3oh<=>ch2oh+ch3oh 3.000e+11 0.000 4.074e+03
ch3o+ch3o<=>ch3oh+ch2o 6.030e+13 0.000 0.000e+00
ch3+h(+m)<=>ch4(+m) 1.350e+16 -0.630 383.00
low/ 2.477e+33 -4.760 2440.00/ 
troe/ 0.7830 74.00 2941.00 6964.0/ 
h2/ 2/ h2o/ 6/ ar/ .7/ co/ 1.5/ co2/ 2/ ch4/ 2/ c2h6/ 3/ he/ .7/ 
ch4+h<=>ch3+h2 6.140e+05 2.500 9.587e+03
ch4+oh<=>ch3+h2o 5.830e+04 2.600 2.190e+03
ch4+o<=>ch3+oh 1.020e+09 1.500 8.600e+03
ch4+ho2<=>ch3+h2o2 1.130e+01 3.740 2.101e+04
ch4+ch2<=>ch3+ch3 2.460e+06 2.000 8.270e+03
ch3+oh(+m)<=>ch2(s)+h2o(+m) 1.128E+15 -0.63327 -493.15597
high/ 2.394E-03 4.096 -1241.875/ 
troe/ 2.122E+00 837.667 2326.05 4.432E+03/ 
ch3+oh(+m)<=>ch2o+h2(+m) 282320.078 1.46878 -3270.56495
high/ 5.88E-14 6.721 -3022.227/ 
troe/ 1.671E+00 434.782 2934.21 3.919E+03/ 
ch3+oh(+m)<=>ch2oh+h(+m) 6.58E+09 0.996 3191.122
high/ 5.86E-06 5.009 1886.4578/ 
troe/ 1.349E+00 612.150 2296.27 4.411E+03/ 
ch3+oh(+m)<=>h+ch3o(+m) 1.20E+09 1.014 11947.831
high/ 1.78E-46 18.59 -27.41384/ 
troe/ 2.897E+00 1873.279 3323.16 3.675E+03/ 
ch3+ho2<=>ch3o+oh 1.000e+12 0.269 -6.875e+02
ch3+ho2<=>ch4+o2 1.160e+05 2.230 -3.022e+03
ch3+o<=>ch2o+h 5.540e+13 0.050 -1.360e+02
ch3+o2<=>ch3o+o 7.546e+12 0.000 2.832e+04
ch3+o2<=>ch2o+oh 2.641e+00 3.283 8.105e+03
ch3+o2(+m)<=>ch3o2(+m) 7.812e+09 0.900 0.000e+00
low/ 6.8500e+24 -3.0000e+00 0.0000e+00/ 
troe/ 6.0000e-01 1.0000e+03 7.0000e+01 1.7000e+03/ 
ch3o2+ch3<=>ch3o+ch3o 2.540e+12 0.000 -1.411e+03
ch3o2+ch3o2=>ch2o+ch3oh+o2 3.110e+14 -1.610 -1.051e+03
ch3o2+ch3o2=>o2+ch3o+ch3o 1.400e+16 -1.610 1.860e+03
ch3o2+h<=>ch3o+oh 9.600e+13 0.000 0.000e+00
ch3o2+o<=>ch3o+o2 3.600e+13 0.000 0.000e+00
ch3o2+oh<=>ch3oh+o2 6.000e+13 0.000 0.000e+00
ch2(s)+n2<=>ch2+n2 1.500e+13 0.000 600.00
ch2(s)+ar<=>ch2+ar 9.000e+12 0.000 600.00
ch2(s)+o<=>co+h2 1.500e+13 0.000 0.00
ch2(s)+o<=>hco+h 1.500e+13 0.000 0.00
ch2(s)+oh<=>ch2o+h 3.000e+13 0.000 0.00
ch2(s)+h2<=>ch3+h 7.000e+13 0.000 0.00
ch2(s)+o2<=>ch2+o2 1.500e+13 0.000 600.00
ch2(s)+h2o<=>ch2+h2o 3.000e+13 0.000 0.00
ch2(s)+co<=>ch2+co 9.000e+12 0.000 0.00
ch2(s)+co2<=>ch2+co2 7.000e+12 0.000 0.00
ch2(s)+co2<=>ch2o+co 1.400e+13 0.000 0.00
ch2+h(+m)<=>ch3(+m) 2.500e+16 -0.800 0.000e+00
low/ 3.2000e+27 -3.1400e+00 1.2300e+03/ 
troe/ 6.8000e-01 7.8000e+01 1.9950e+03 5.5900e+03/ 
h2/ 2/ h2o/ 6/ ar/ .7/ co/ 1.5/ co2/ 2/ ch4/ 2/ c2h6/ 3/ he/ .7/ 
ch2+o2<=>ch2o+o 1.26e+06 2.4202 1604.0
ch2+o2<=>co2+h2 2.05e+09 0.9929 -269.4
ch2+o=>co+h+h 5.000e+13 0.000 0.000e+00
end
