!Kinetic Database!
!Effect of equivalence ratio on the thermal autoignition of aqueous ammonia ammonium nitrate monofuel!
!Bar Mosevitzky, Gennady E. Shter, Gideon S. Grader!
ELEMENTS 			 
H O N			
END

SPECIES
H		H2		H2NO 		H2O		H2O2		
HNNO		HNO		HNOH 		HNO3		HONO		
HO2		N		NH		NH2		NH3		
NH2OH		N2		NNH		N2H2		N2H3		
N2H4		N2O		N2O3		N2O4		NO		
NO2		NO3		O		OH		O2		
END

REACTIONS
H+H+M=H2+M				7.000E+17      -1.000		0
	H2 / 0.0/ N2 / 0.0/ H / 0.0/ H2O / 14.3/
H+H+H2=H2+H2				1.000E+17      -0.600		0
H+H+N2=H2+N2				5.400E+18      -1.300		0
H+H+H=H+H2				3.200E+15	0.000		0
H+O+M=OH+M				6.750E+18      -1.000		0
	H2O /5.0/
H2O+M=H+OH+M				6.060E+27      -3.312	   120770
	H2 / 3.0/ N2 / 2.0/ O2 / 1.5/ H2O / 0.0/
H2O+H2O=H+H2O+OH			1.000E+26      -2.440	   120160
H+O2(+M)=HO2(+M)			4.660E+12	0.440		0
	H2 / 1.5/ N2 / 1.0/ O2 / 0.0/ H2O / 0.0/
	LOW   /5.700E+19       -1.400	0.000E+00/
	TROE  /5.000E-01    1.000E-30	1.000E+30/
H+O2(+O2)=HO2(+O2)			4.660E+12	0.440		0
	LOW   /5.690E+18       -1.094	0.000E+00/
	TROE  /5.000E-01    1.000E-30	1.000E+30/
H+O2(+H2O)=HO2(+H2O)			9.060E+12	0.200		0
	LOW   /3.670E+12       -1.000	0.000E+00/
	TROE  /8.000E-01    1.000E-30	1.000E+30/
OH+OH(+M)=H2O2(+M)			1.000E+14      -0.370		0
	H2O / 0.0/
	LOW   /2.380E+19       -0.800	0.000E+00/
	TROE  /5.000E-01    1.000E-30	1.000E+30/
OH+OH(+H2O)=H2O2(+H2O)			1.000E+14      -0.370		0
	LOW   /1.450E+18	0.000	0.000E+00/
	TROE  /5.000E-01    1.000E-30	1.000E+30/
H2+O=H+OH				3.820E+12	0.000	     7948
!H2+O=H+OH				8.790E+14	0.000	    19170!
H+O2=O+OH				6.730E+15      -0.500       16670
H2+OH=H+H2O				2.140E+08	1.520	     3450
OH+OH=H2O+O				3.340E+04	2.420	    -1930
HO2+O=OH+O2				1.630E+13	0.000	     -445
H+HO2=OH+OH				7.080E+13	0.000	      295
H+HO2=H2O+O				1.450E+12	0.000		0
H+HO2=H2+O2				1.660E+13	0.000	      823
H2+O2=OH+OH				2.040E+12	0.440	    69155
HO2+OH=H2O+O2				2.890E+13	0.000	     -500
!HO2+OH=H2O+O2				9.270E+15	0.000	    17500!
HO2+HO2=H2O2+O2				1.030E+14	0.000	    11040
!HO2+HO2=H2O2+O2				1.940E+11	0.000	    -1409!
HO2+HO2+M=H2O2+O2+M			6.840E+14	0.000	    -1950
H+H2O2=H2+HO2				1.700E+12	0.000	     3755
H+H2O2=H2O+OH				1.000E+13	0.000	     3575
H2O2+O=HO2+OH				9.550E+06	2.000	     3970
H2O2+OH=H2O+HO2				2.000E+12	0.000	      427
O+O+M=O2+M				1.000E+17      -1.000		0
	N2O / 4.38/ N / 2.0/ N2 / 2.0/ NO / 2.0/ O2 / 8.0/ O / 28.8/
N2+M=N+N+M				1.000E+28      -3.330	   225000
	O / 6.6/ N / 6.6/ N2 / 2.96/ NO / 2.96/ O2 / 2.96/
N2+O=N+NO				1.800E+14	0.000	    76300
N+O2=NO+O				5.850E+09	1.010	     6200
NO+M=N+O+M				7.710E+19      -1.310	   150000
	NO / 3.0/ N2 / 1.5/
NO+NO=N2+O2				3.000E+11	0.000	    65000
N2O(+M)=N2+O(+M)			9.900E+10	0.000	    57900
	O2 / 1.4/ N2 / 1.7/ N2O / 3.5/ NO / 3.0/
	LOW   /6.000E+14	0.000	5.744E+04/
	TROE  /1.167E+00    1.000E-30	1.000E+30/
N2O+O=N2+O2				3.690E+12	0.000	    15940
N2O+O=NO+NO				9.150E+13	0.000	    27680
N+N2O=N2+NO				2.500E+12	0.000	    20000
N2O+NO=N2+NO2				2.750E+14	0.000	    50000
NO+O(+M)=NO2(+M)			2.900E+14      -0.400		0
	N2 / 1.46/ O2 / 1.3/ NO / 2.8/ NO2 / 10.0/ N2O / 7.0/
	LOW   /2.300E+20       -1.600	0.000E+00/
	TROE  /8.000E-01    1.000E-30	1.000E+30/
NO2+O=NO+O2				3.30E+12	0.000	     -374
N+NO2=NO+NO				8.00E+11	0.000	     -437
N+NO2=N2O+O				1.00E+12	0.000	     -437
NO+NO2=N2O+O2				1.00E+12	0.000	    60000
NO2+NO2=NO+NO+O2			3.95E+12	0.000	    27590
NO2+NO2=NO+NO3				1.13E+04	2.580	    22720
NO2+O(+M)=NO3(+M)			3.50E+12	0.240		0
	LOW   /2.400E+20       -1.500	0.000E+00/
	TROE  /7.100E-01    1.000E-30	1.700E+03/
NO3=NO+O2				2.50E+06	0.000	    12120
NO3+O=NO2+O2				1.00E+13	0.000		0
NO2+NO3=NO+NO2+O2			1.51E+10	0.000	     2440
NO3+NO3=NO2+NO2+O2			5.10E+11	0.000	     4870
N2O4(+M)=NO2+NO2(+M)			1.15E+16	0.000	    12840
	N2O4 / 2.0/ NO2 / 2.0/
	LOW   /2.000E+28       -3.800	1.272E+04/
	TROE  /4.000E-01    1.000E-30	1.700E+03/
N2O4+O=N2O3+O2				1.210E+12	0.000		0
NO+NO2(+M)=N2O3(+M)			1.600E+09	1.400		0
	N2 / 1.36/
	LOW   /1.000E+33       -7.700	0.000E+00/
	TROE  /6.000E-01    1.000E-30	1.700E+03/
N2O3+O=NO2+NO2				2.710E+11	0.000		0
N+NO2=N2+O2				2.400E+11	0.000	     -437
NO+NO+NO=N2O+NO2			1.070E+10	0.000	    26800
NH+M=H+N+M				2.650E+14	0.000	    75500
H+NH=H2+N				3.200E+13	0.000	      325
N+NH=H+N2				9.000E+11	0.500		0
NH+NH=H+NNH				5.100E+13	0.000		0
NH+NH=N+NH2				5.950E+02	2.890	    -2030
NH+NH=H2+N2				1.000E+08	1.000		0
NH2+M=H+NH+M				3.160E+23      -2.000	    91400
H2+NH=H+NH2				1.000E+14	0.000	    20070
N+NH2=H+H+N2				6.900E+13	0.000		0
NH+NH2=H+N2H2				1.500E+15      -0.500		0
NH+NH2=N+NH3				1.000E+13	0.000	     2000
NH+NH3=NH2+NH2				3.160E+14	0.000	    26770
NH2+NH2=H2+N2H2				1.000E+13	0.000	     1500
H+N2H3=NH2+NH2				5.000E+13	0.000	     2000
NH3+M=H+NH2+M				2.200E+16	0.000	    93470
NH3+M=H2+NH+M				6.300E+14	0.000	    93390
H+NH3=H2+NH2				5.420E+05	2.400	     9920
NH2+NH3=H2+N2H3				1.000E+11	0.500	    21600
NNH=H+N2				3.000E+08	0.000		0
NNH+M=H+N2+M				1.000E+13	0.500	     3060
H+NNH=H2+N2				1.000E+14	0.000		0
N+NNH=NH+N2				3.000E+13	0.000	     2000
NH+NNH=NH2+N2				2.000E+11	0.500	     2000
NH2+NNH=NH3+N2				1.000E+13	0.000		0
NNH+NNH=N2+N2H2				1.000E+13	0.000	     4000
N2H2+M=H+NNH+M				5.000E+16	0.000	    50000
	N2 / 2.0/ H2O / 15.0/ O2 / 2.0/
N2H2+M=NH+NH+M				3.160E+16	0.000	    99400
	N2 / 2.0/ H2O / 15.0/ O2 / 2.0/
H+N2H2=H2+NNH				8.500E+04	2.630	     -230
N+N2H2=NH+NNH				1.000E+06	2.000		0
NH+N2H2=NH2+NNH				1.000E+13	0.000	     6000
NH2+N2H2=NH3+NNH			8.800E-02	4.050	    -1610
NH+N2H3=NH2+N2H2			2.000E+13	0.000		0
NNH+N2H3=N2H2+N2H2			1.000E+13	0.000	     4000
N2H3+M=NH+NH2+M				5.000E+16	0.000	    60000
N2H3+M=H+N2H2+M				1.000E+16	0.000	    37000
H+N2H3=H2+N2H2				1.000E+13	0.000		0
H+N2H3=NH+NH3				1.000E+11	0.000		0
N+N2H3=NH+N2H2				1.000E+06	2.000		0
NH2+N2H3=NH3+N2H2			1.000E+11	0.500		0
N2H2+N2H3=NNH+N2H4			1.000E+13	0.000	     6000
N2H3+N2H3=NH3+NH3+N2			3.000E+12	0.000		0
N2H3+N2H3=N2H2+N2H4			1.200E+13	0.000		0
N2H4(+M)=NH2+NH2(+M)			5.000E+14	0.000	    60000
	N2 / 2.4/ NH3 / 3.0/ N2H4 / 4.0/
	LOW   /1.500E+15	0.000	3.900E+04/
N2H4+M=H+N2H3+M				1.000E+15	0.000	    63600
H+N2H4=H2+N2H3				7.000E+12	0.000	     2500
H+N2H4=NH2+NH3				2.400E+09	0.000	     3100
N+N2H4=NH+N2H3				1.000E+10	1.000	     2000
NH+N2H4=NH2+N2H3			1.000E+09	1.500	     2000
NH2+N2H4=NH3+N2H3			1.800E+06	1.710	    -1380
N+OH=H+NO				2.800E+13	0.000		0
H+N2O=N2+OH				2.200E+14	0.000	    16750
H+N2O=NH+NO				6.700E+22      -2.160	    37155
H+N2O=NNH+O				5.500E+18      -1.060	    47290
H+N2O=HNNO				8.000E+24      -4.390	    10530
N2O+OH=HO2+N2				1.000E+14	0.000	    30000
HNO+NO=N2O+OH				8.500E+12	0.000	    29580
HNO+NO+NO=HNNO+NO2			1.600E+11	0.000	     2090
NH+NO+M=HNNO+M				1.630E+23      -2.600	     1820
H+HNNO=H2+N2O				2.000E+13	0.000		0
H+HNNO=NH2+NO				1.000E+12	0.000		0
HNNO+O=N2O+OH				2.000E+13	0.000		0
HNNO+OH=H2O+N2O				2.000E+13	0.000		0
HNNO+OH=HNOH+NO				1.000E+12	0.000		0
HNNO+NO=HONO+N2				2.600E+11	0.000	     1610
HNNO+NO=NNH+NO2				3.200E+12	0.000         540
HNNO+NO=HNO+N2O				1.000E+12	0.000		0
HNNO+NO2=HONO+N2O			1.000E+12	0.000		0
HNNO+NO2=NNH+NO3			1.000E+13	0.000	    17000
H+NO2=NO+OH				1.320E+14	0.000	      362
NO2+OH=HO2+NO				1.810E+13	0.000	     6676
HO2+NO2=HONO+O2				4.640E+11	0.000	     -479
H2+NO2=HONO+H				8.430E+03	2.635	    32550
NH+NO2=N2O+OH				8.650E+10	0.000	    -2270
NH+NO2=HNO+NO				1.250E+11	0.000	    -2270
H+NO3=NO2+OH				6.620E+13	0.000		0
NO3+OH=HO2+NO2				1.210E+13	0.000		0
HO2+NO3=HNO3+O2				5.550E+11	0.000		0
HO2+NO3=NO2+OH+O2			1.510E+12	0.000		0
H2O+N2O4=HNO3+HONO			2.520E+14	0.000	    11590
H2O+N2O3=HONO+HONO			3.790E+13	0.000	     8880
H+NO+M=HNO+M				1.520E+15      -0.410		0
H+HNO=H2+NO				4.460E+11	0.720	      655
HNO+OH=H2O+NO				1.300E+07	1.880	     -956
HNO+O=NO+OH				5.000E+11	0.500	     2000
HNO+O=H+NO2				5.000E+10	0.000	     2000
HNO+O2=HO2+NO				2.200E+10	0.000	     9140
HNO+N=NH+NO				1.000E+11	0.500	     2000
HNO+N=H+N2O				5.000E+10	0.500	     3000
HNO+NH=NH2+NO				5.000E+11	0.500		0
HNO+NH2=NH3+NO				2.310E+04	2.470	    -2880
!HNO+NH2=NH3+NO				1.550E+02	3.150	    -3640!
HNO+HNO=H2O+N2O				3.630E-03	3.980	     1190
HNO+HNO=HNOH+NO				2.000E+08	0.000	     4170
HNO+NO2=HONO+NO				6.020E+11	0.000	     2000
NO+OH+M=HONO+M				2.000E+12      -0.050	     -721
H+NO2+M=HONO+M				1.400E+18      -1.500	      900
H+HONO=HNO+OH				5.640E+10	0.860	     4970
H+HONO=H2O+NO				8.120E+06	1.890	     3840
HONO+O=NO2+OH				1.200E+13	0.000	     5960
HONO+OH=H2O+NO2				1.690E+12	0.000	     -517
HONO+NH=NH2+NO2				1.000E+13	0.000		0
HONO+HONO=H2O+NO+NO2			1.000E+13	0.000	     8540
HONO+NH2=NH3+NO2			1.020E+04	2.340	    -3202
!HONO+NH2=NH3+NO2			4.840E+02	3.360	    -4575!
NO2+OH+M=HNO3+M				2.410E+13	0.000		0
HO2+NO+M=HNO3+M				1.500E+24      -3.500	     2200
H+HNO3=H2+NO3				5.560E+08	1.530	    16400
H+HNO3=H2O+NO2				6.080E+01	3.290	     6290
H+HNO3=HONO+OH				3.820E+05	2.300	     6980
HNO3+OH=H2O+NO3				1.030E+10	0.000	    -1240
!HNO3+NH2=NH3+NO3			1.030E+21      -3.850	      191!
HNO3+NH2=NH3+NO3			3.080E+01	3.220	     -139
NH3+O=NH2+OH				1.100E+06	2.100	     5210
NH3+OH=H2O+NH2				5.000E+07	1.600	      950
HO2+NH3=H2O2+NH2			3.000E+11	0.000	    22000
HO2+NH2=NH3+O2				1.650E+04	1.550	     2027
NH2+O=H2+NO				5.000E+12	0.000		0
NH2+O=H+HNO				4.500E+13	0.000		0
NH2+O=NH+OH				7.000E+12	0.000		0
NH2+OH=H2O+NH				9.000E+07	1.500	     -460
NH2+OH=NH2OH				1.790E+13	0.200		0
HO2+NH2=H2O+HNO				5.680E+15      -1.120	      707
HO2+NH2=H2NO+OH				2.910E+17      -1.320	     1248
NH2+O2=HNO+OH				1.000E+13	0.000	    26290
NH2+O2=H2NO+O				6.000E+13	0.000	    29880
NH2+NO=NNH+OH				2.290E+10	0.425	     -814
NH2+NO=H2O+N2				2.270E+20      -2.650	     1258
NH2+NO=H2+N2O				1.000E+13	0.000	    33700
NH2+NO2=H2O+N2O				1.620E+16      -1.440	      270
NH2+NO2=H2NO+NO				6.480E+16      -1.440	      270
NH+O=H+NO				7.000E+13	0.000		0
NH+O=N+OH				7.000E+12	0.000		0
NH+OH=H+HNO				2.000E+13	0.000		0
NH+OH=H2O+N				2.000E+09	1.200		0
NH+OH=H2+NO				2.000E+13	0.000		0
HO2+NH=HNO+OH				1.000E+13	0.000	     2000
NH+O2=HNO+O				4.000E+13	0.000	    17880
NH+O2=NO+OH				4.500E+08	0.790	     1190
H2O+NH=NH2OH				2.000E+13	0.000	    13850
NH+N2O=HNO+N2				2.000E+12	0.000	     6000
NNH+O=NH+NO				1.000E+14	0.000	     4000
NH+NO=N2+OH				6.100E+13      -0.500	      120
N2H4+O=H2O+N2H2				8.500E+13	0.000	     1200
N2H4+O=N2H3+OH				2.500E+12	0.000	     1200
N2H4+OH=H2O+N2H3			3.000E+10	0.680	     1290
N2H4+OH=H2NO+NH3			3.670E+13	0.000		0
HO2+N2H4=H2O2+N2H3			4.000E+13	0.000	     2000
N2H3+O=N2H2+OH				2.000E+13	0.000	     1000
N2H3+O=H2O+NNH				3.160E+11	0.500		0
N2H3+O=HNO+NH2				1.000E+13	0.000		0
N2H3+OH=H2O+N2H2			3.000E+10	0.680	     1290
N2H3+OH=HNO+NH3				1.000E+12	0.000	    15000
N2H3+O2=HO2+N2H2			3.000E+12	0.000		0
HO2+N2H3=H2O2+N2H2			1.000E+13	0.000	     2000
HO2+N2H3=N2H4+O2			8.000E+12	0.000		0
N2H3+NO=HNO+N2H2			1.000E+12	0.000		0
N2H2+O=NH2+NO				1.000E+13	0.000		0
N2H2+O=NNH+OH				2.000E+13	0.000	     1000
N2H2+OH=H2O+NNH				5.920E+01	3.400	    -1360
HO2+N2H2=H2O2+NNH			1.000E+13	0.000	     2000
N2H2+NO=NH2+N2O				3.000E+10	0.000		0
NNH+O=N2+OH				1.700E+16      -1.230	      500
NNH+OH=H2O+N2				2.400E+22      -2.880	     2444
NNH+O2=HO2+N2				1.200E+12      -0.340	      150
NNH+O2=N2O+OH				2.900E+11      -0.340	      150
HO2+NNH=H2O2+N2				1.000E+13	0.000	     2000
NNH+NO=HNO+N2				5.000E+13	0.000		0
NH2OH+OH=H2O+HNOH			2.500E+13	0.000	     4250
H2NO+M=H2+NO+M				7.830E+27      -4.290	    60300
	H2O / 10.0/
H2NO+M=H+HNO+M				2.800E+24      -2.830	    64915
	H2O / 10.0/
H2NO+M=HNOH+M				1.100E+29      -3.990	    43980
	H2O / 10.0/
H+H2NO=H2+HNO				3.000E+07	2.000	     2000
H+H2NO=NH2+OH				5.000E+13	0.000		0
H2NO+O=HNO+OH				3.000E+07	2.000	     2000
H2NO+OH=H2O+HNO				2.000E+07	2.000	     1000
HO2+H2NO=H2O2+HNO			2.900E+04	2.690	    -1600
H2NO+NH2=HNO+NH3			3.000E+12	0.000	    25000
H2NO+O2=HNO+HO2				3.000E+12	0.000	    25000
H2NO+NO=HNO+HNO				2.000E+07	2.000	    13000
H2NO+NO2=HNO+HONO			6.000E+11	0.000	     2000
HNOH+M=H+HNO+M				2.000E+24      -2.840	    58935
	H2O / 10.0/
H+HNOH=H2+HNO				4.80E+08	1.500	      380
H+HNOH=NH2+OH				4.00E+13	0.000		0
HNOH+O=HNO+OH				7.00E+13	0.000		0
!HNOH+O=HNO+OH				3.30E+08	1.500	     -360!
HNOH+OH=H2O+HNO				2.40E+06	2.000	    -1190
HNOH+HO2=H2O2+HNO			2.90E+04	2.690	    -1600
HNOH+NH2=HNO+NH3			1.80E+06	1.940	    -1150
HNOH+NO2=HNO+HONO			6.00E+11	0.000	     2000
HNOH+O2=HNO+HO2				3.00E+12	0.000	    25000
HNO+HNOH=NH2OH+NO			1.00E+12	0.000	     3000

H+H+H2O=H2+H2O				6.000E19       -1.250		0
H+O2+N2=HO2+N2				6.700E19       -1.420		0
NH+NH=N2+2H				2.500E13	0.000		0
END

