 ELEMENTS
C    
H    
O    
N    
 END
 
 SPECIES
NC10H22             
PHC3H7              
CYC9H18             
O2                  
N2                  
AC8H17              
C2H5                
PHCH2               
C2H4                
C3H6                
AC5H10              
NC3H7               
C4H73               
C2H5O2              
DC8H17              
BPHC3H6             
TOLUEN              
CPHC3H6             
H                   
AC3H5               
HO2                 
CH3                 
C2H3                
BPHPROPY            
STYREN              
OH                  
O                   
BC10H21             
H2                  
CC10H21             
DC10H21             
EC10H21             
AC9H17C             
AC10H21             
H2O2                
CH3O2               
CH2O                
HCO                 
C6H6                
C2H2                
H2O                 
AC7H15              
CH3O                
CO                  
C6H5O               
HCCO                
CC7H15              
CO2                 
C5H5                
C4H8                
SCH2                
C5H5O13             
CH2                 
NC4H5               
AC6H13              
PC4H9               
CYC6H11             
EC9H17C             
CPD                 
BC6H13              
C6H1116             
C6H1112             
C6H1115             
FC9H17C             
CC9H17C             
BC9H17C             
C6H5                
C5H913              
ACROL               
C2H3CO              
PHCH2O              
PHHCO               
PHCO                
CH4                 
C3H5O               
C2H4O2H             
SC3H5               
MEALL               
CH3HCO              
C4H6                
CH3CO               
IC4H5               
APHC3H6             
TC3H5               
C6H5OH              
C5H813              
C5H7                
C2H6                
AC6H12              
C6H1113             
CH2HCO              
AC5H11              
CH2CO               
CH2OH               
AC9H18              
AC7H14              
C4H4                
C2H                 
C5H4OH              
PC3H4               
IC4H3               
C4H2                
C5H4O               
C3H3                
C4H                 
APHC2H4             
 END
 
 REACTIONS
     H  +      H +  M =      H2 +       M         7.310E+17  -1.0       0.0
   H2O/16.25/ CO/1.875/ CO2/3.75/ CH4/16.25/ C2H6/16.25/
    H2  +     O2      =      OH +      OH         1.700E+13   0.0   47780.0
     O  +     H2      =      OH +       H         3.870E+04   2.7    6260.0
     H  +     O2      =      OH +       O         1.850E+14   0.0   16812.0
     H  +     O2 (+M) =     HO2 (+M)              4.650E+12   0.44      0.0
LOW /5.75E+19  -1.4  0.0 /
TROE / 0.5 1.0E+15 1.0E-15 1.0E+15 /
   H2O/16.25/ CO/1.875/ CO2/3.75/ CH4/16.25/ C2H6/16.25/
     H  +     OH +  M =     H2O +       M         8.615E+21  -2.0       0.0
   H2O/16.25/ CO/1.875/ CO2/3.75/ CH4/16.25/ C2H6/16.25/
    H2  +     OH      =     H2O +       H         2.161E+08   1.51   3430.0
   H2O  +      O      =      OH +      OH         1.500E+10   1.14  17260.0
   HO2  +     OH      =     H2O +      O2         2.890E+13   0.0    -497.0
     H  +    HO2      =      H2 +      O2         4.280E+13   0.0    1411.0
     H  +    HO2      =      OH +      OH         1.690E+14   0.0     874.0
   HO2  +    HO2      =    H2O2 +      O2         4.075E+02   3.321  1979.0
  H2O2  +     OH      =     HO2 +     H2O         5.800E+14   0.0    9557.0
  H2O2  +      H      =     H2O +      OH         1.000E+13   0.0    3590.0
    CO  +    HO2      =     CO2 +      OH         1.500E+14   0.0   23650.0
    CO  +     OH      =     CO2 +       H         4.400E+06   1.5    -740.0
    CO  +     O2      =     CO2 +       O         2.530E+12   0.0   47700.0
   HCO  +      M      =       H +      CO +     M 1.850E+17  -1.0   17000.0
   H2O/16.25/ CO/1.875/ CO2/3.75/ CH4/16.25/ C2H6/16.25/
   HCO  +     OH      =      CO +     H2O         1.000E+14   0.0       0.0
   HCO  +     O2      =      CO +     HO2         2.110E+09   1.12   -620.0
   HCO  +    CH3      =      CO +     CH4         1.200E+14   0.0       0.0
   CH4  +    HO2      =     CH3 +    H2O2         1.122E+13   0.0   24641.0
   CH4  +     OH      =     CH3 +     H2O         1.600E+06   2.1    2462.0
   CH4  +      O      =     CH3 +      OH         1.620E+06   2.30   7094.0
   CH4  +      H      =     CH3 +      H2         2.250E+04   3.0    8756.6
   CH4  +     O2      =     CH3 +     HO2         4.040E+13   0.0   56913.0
   CH3  +    HO2      =    CH3O +      OH         5.000E+12   0.0       0.0
   CH3  +      O      =    CH2O +       H         8.430E+13   0.0       0.0
   CH3  +      H      =     CH2 +      H2         7.000E+13   0.0   15100.0
   CH3  +     O2      =    CH3O +       O         1.320E+14   0.0   31398.0
   CH2  +     OH      =    CH2O +       H         2.500E+13   0.0       0.0
   CH2  +      O      =      CO +       H +     H 5.000E+13   0.0       0.0
   CH2  +      O      =      CO +      H2         6.000E+13   0.0       0.0
   CH2  +     O2      =     CO2 +       H +     H 1.600E+12   0.0    1000.0
   CH2  +     O2      =    CH2O +       O         5.000E+13   0.0    9000.0
   CH2  +    CO2      =    CH2O +      CO         1.100E+11   0.0    1000.0
   CH2  +    CH3      =    C2H4 +       H         4.000E+13   0.0       0.0
  SCH2  +      M      =     CH2 +       M         1.000E+13   0.0       0.0
   H2O/16.25/ CO/1.875/ CO2/3.75/ CH4/16.25/ C2H6/16.25/
  SCH2  +   C2H2      =    C3H3 +       H         1.800E+14   0.0       0.0
  SCH2  +    H2O      =     CH2 +     H2O         3.000E+13   0.0       0.0
  SCH2  +    CO2      =    CH2O +      CO         3.000E+12   0.0       0.0
  CH3O  +      M      =    CH2O +       H +     M 4.880E+15   0.0   22773.0
   H2O/16.25/ CO/1.875/ CO2/3.75/ CH4/16.25/ C2H6/16.25/
  CH2O  +    HO2      =     HCO +    H2O2         4.000E+12   0.0   11665.0
  CH2O  +     OH      =     HCO +     H2O         1.716E+09   1.18   -447.0
  CH2O  +      O      =     HCO +      OH         1.807E+13   0.0    3088.0
  CH2O  +      H      =     HCO +      H2         1.260E+08   1.62   2170.0
  CH2O  +     O2      =     HCO +     HO2         2.040E+13   0.0   39000.0
  CH2O  +    CH3      =     HCO +     CH4         4.090E+12   0.0    8843.0
  C2H6  +     OH      =    C2H5 +     H2O         4.100E+06   2.06    860.0
  C2H6  +      O      =    C2H5 +      OH         9.990E+08   1.50   5803.0
  C2H6  +      H      =    C2H5 +      H2         5.250E+14   0.0   12800.0
  C2H6  +    CH3      =    C2H5 +     CH4         7.536E+00   3.727  9883.0
  C2H5  +     OH      =    C2H4 +     H2O         2.409E+13   0.0       0.0
  C2H5  +     OH      =>    CH3 +    CH2O +     H 2.409E+13   0.0       0.0
  C2H5  +      O      =    CH2O +     CH3         4.238E+13   0.0       0.0
  C2H5  +      O      =  CH3HCO +       H         5.298E+13   0.0       0.0
  C2H5  +      O      =    C2H4 +      OH         3.046E+13   0.0       0.0
  C2H5  +      H      =    C2H4 +      H2         1.250E+14   0.0    8000.0
  C2H5  +    CH3      =    C2H4 +     CH4         1.144E+12   0.0       0.0
  C2H4  +      M      =    C2H2 +      H2 +     M 3.000E+17   0.0   79350.0
   H2O/16.25/ CO/1.875/ CO2/3.75/ CH4/16.25/ C2H6/16.25/
  C2H4  +    HO2      = C2H4O2H                   2.000E+11   0.0    8000.0
  C2H4  +     OH      =    C2H3 +     H2O         2.024E+13   0.0    5936.0
  C2H4  +      O      =     CH3 +     HCO         1.200E+08   1.44    530.0
  C2H4  +      O      =  CH2HCO +       H         2.000E+08   1.44    530.0
  C2H4  +      H      =    C2H3 +      H2         1.000E+14   0.0   15009.0
  C2H4  +    CH3      =    C2H3 +     CH4         6.630E+00   3.7    9499.0
  C2H3  +     OH      =    C2H2 +     H2O         3.000E+13   0.0       0.0
  C2H3  +      H      =    C2H2 +      H2         3.000E+13   0.0       0.0
  C2H3  +      O      =     CH3 +      CO         1.500E+13   0.0       0.0
  C2H3  +      O      =   CH2CO +       H         1.500E+13   0.0       0.0
  C2H2  +     O2      =    HCCO +      OH         2.000E+08   1.5   30100.0
  C2H2  +     OH      =     C2H +     H2O         3.400E+07   2.0   14000.0
  C2H2  +      O      =     CH2 +      CO         1.980E+04   2.6     656.0
  C2H2  +      O      =    HCCO +       H         4.620E+04   2.6     656.0
   C2H  +     H2      =    C2H2 +       H         1.506E+13   0.0    3100.0
   C2H  +     OH      =    HCCO +       H         2.000E+13   0.0       0.0
   C2H  +     O2      =      CO +     HCO         2.410E+12   0.0       0.0
 CH2CO  +      H      =            CH2HCO         1.000E+14   0.0    2500.0
CH2HCO  +     O2      =   CH2CO +     HO2         1.580E+10   0.0       0.0
CH2HCO  +     O2      =    CH2O +      CO +    OH 2.510E+10   0.0       0.0
CH2HCO  +      O      =    CH2O +     HCO         3.980E+13   0.0       0.0
CH2HCO  +    HO2      =    CH2O +     HCO +    OH 1.000E+13   0.0       0.0
 CH2CO  +      M      =     CH2 +      CO +     M 3.600E+15   0.0   59270.0
   H2O/16.25/ CO/1.875/ CO2/3.75/ CH4/16.25/ C2H6/16.25/
 CH2CO  +     OH      =   CH2OH +      CO         6.930E+12   0.0       0.0
 CH2CO  +     OH      =     CH3 +     CO2         3.100E+12   0.0       0.0
 CH2CO  +      H      =     CH3 +      CO         1.500E+04   2.83    673.0
 CH2CO  +    CH3      =    C2H5 +      CO         6.000E+10   0.0       0.0
  HCCO  +      O      =      CO +      CO +     H 1.930E+14   0.0     590.0
  HCCO  +      H      =    SCH2 +      CO         1.500E+14   0.0       0.0
  HCCO  +     O2      =     CO2 +      CO +     H 1.400E+09   1.0       0.0
 CH2OH  +      M      =    CH2O +       H +     M 1.000E+14   0.0   25100.0
   H2O/16.25/ CO/1.875/ CO2/3.75/ CH4/16.25/ C2H6/16.25/
 CH2OH  +     O2      =    CH2O +     HO2         2.168E+14   0.0    4690.0
CH3HCO                =     CH3 +     HCO         9.586E+14   0.0   74180.0
CH3HCO  +    HO2      =   CH3CO +    H2O2         1.700E+12   0.0   10700.0
CH3HCO  +     OH      =   CH3CO +     H2O         2.350E+10   0.73  -1113.0
CH3HCO  +      H      =   CH3CO +      H2         4.100E+09   1.16   2405.0
CH3HCO  +     O2      =   CH3CO +     HO2         2.000E+13   0.5   42200.0
CH3HCO  +    CH3      =   CH3CO +     CH4         1.700E+12   0.0    8440.0
 CH3CO  +      M      =     CH3 +      CO +     M 8.640E+15   0.0   14400.0
   H2O/16.25/ CO/1.875/ CO2/3.75/ CH4/16.25/ C2H6/16.25/
 NC3H7  +     O2      =    C3H6 +     HO2         1.000E+12   0.0    5020.0
  C3H6                =    C2H3 +     CH3         1.100E+21  -1.2   97720.0
  C3H6  +     O2      =   AC3H5 +     HO2         1.950E+12   0.0   39000.0
  C3H6  +    HO2      =   AC3H5 +    H2O2         1.500E+11   0.0   14190.0
  C3H6  +     OH      =   AC3H5 +     H2O         7.698E+05   2.214   622.0
  C3H6  +     OH      =   SC3H5 +     H2O         1.013E+13   0.0    5960.0
  C3H6  +     OH      =   TC3H5 +     H2O         1.110E+06   2.0    1450.0
  C3H6  +      O      =    C2H5 +     HCO         4.689E+07   1.57   -628.0
  C3H6  +      O      =     CH3 +  CH2HCO         3.900E+07   1.57   -628.0
  C3H6  +      O      =    C2H4 +    CH2O         7.020E+07   1.57   -628.0
  C3H6  +      O      =   AC3H5 +      OH         1.750E+11   0.70   5884.0
  C3H6  +      H      =   AC3H5 +      H2         1.700E+05   2.5    2492.0
  C3H6  +      H      =   TC3H5 +      H2         1.670E+14   0.0   14818.0
  C3H6  +    CH3      =   AC3H5 +     CH4         1.600E+11   0.0    8800.0
  C3H6  +    CH3      =   SC3H5 +     CH4         3.300E+11   0.0   10110.0
 AC3H5  +    HO2      =   C3H5O +      OH         7.500E+11   0.0       0.0
 SC3H5                =   PC3H4 +       H         5.620E+12   0.0   43500.0
 SC3H5  +     O2      =  CH3HCO +     HCO         4.335E+12   0.0       0.0
 TC3H5                =   AC3H5                   2.500E+12   0.0   47000.0
 TC3H5  +     O2      =   CH3CO +    CH2O         5.010E+12   0.0   19000.0
 TC3H5  +      O      =>  CH2CO +     CH3         1.807E+14   0.0       0.0
 PC3H4  +      M      =    C3H3 +       H +     M 4.700E+18   0.0   80000.0
   H2O/16.25/ CO/1.875/ CO2/3.75/ CH4/16.25/ C2H6/16.25/
 PC3H4                =     C2H +     CH3         4.200E+16   0.0  100000.0
 PC3H4  +     OH      =    C3H3 +     H2O         6.500E+02   3.0     200.0
 PC3H4  +      H      =   TC3H5                   1.300E+13   0.0    1999.0
  C3H3  +     O2      =   CH2CO +     HCO         3.010E+10   0.0    2870.0
  C3H3  +     OH      =    HCCO +     CH3         5.000E+12   0.0       0.0
  C3H3  +      O      =>   C2H2 +     HCO         1.385E+14   0.0       0.0
  C3H3  +      O      =    C2H3 +      CO         4.615E+13   0.0       0.0
  C3H3  +    CH3      =    C4H6                   3.330E+12   0.0       0.0
 C3H5O                =   ACROL +       H         1.000E+14   0.0   19000.0
 ACROL                =    C2H3 +     HCO         2.449E+16   0.0   84128.0
 ACROL  +      H      => C2H3CO +      H2         3.380E+13   0.0    4200.0
 ACROL  +     OH      => C2H3CO +     H2O         1.000E+13   0.0       0.0
 ACROL  +    HO2      => C2H3CO +    H2O2         1.700E+12   0.0   10700.0
 ACROL  +    CH3      => C2H3CO +     CH4         1.740E+12   0.0    8440.0
 ACROL  +  AC3H5      => C2H3CO +    C3H6         1.000E+12   0.0    8000.0
 ACROL  +   C2H5      =  C2H3CO +    C2H6         1.740E+12   0.0    8440.0
C2H3CO  +      M      =>   C2H3 +      CO +     M 8.600E+15   0.0   23000.0
   H2O/16.25/ CO/1.875/ CO2/3.75/ CH4/16.25/ C2H6/16.25/
 PC4H9  + M           =    C2H5 +    C2H4 + M     1.900E+55 -11.91  32266.0
 PC4H9                =     CH3 +    C3H6         1.260E+12   0.0   27100.0
 PC4H9                =    C4H8 +       H         1.260E+13   0.0   38600.0
  C4H8                =   AC3H5 +     CH3         1.500E+19  -1.0   73400.0
  C4H8  +     O2      =   MEALL +     HO2         4.000E+12   0.0   40000.0
  C4H8  +    HO2      =>   CH2O +    C3H6 +    OH 2.500E+12   0.0   14340.0
  C4H8  +     OH      =   MEALL +     H2O         4.186E+06   2.0    -543.0
  C4H8  +     OH      =    CH2O +   NC3H7         3.440E+12   0.0    -928.0
  C4H8  +      O      =    C3H6 +    CH2O         7.230E+05   2.34  -1050.0
  C4H8  +      O      =  CH3HCO +    C2H4         1.300E+13   0.0     850.0
  C4H8  +      O      =    C2H5 +   CH3CO         1.625E+13   0.0     850.0
  C4H8  +      H      =   MEALL +      H2         1.950E+13   0.0    4445.0
 C4H73                =    C2H4 +    C2H3         5.000E+13   0.0   38000.0
 C4H73                =    C4H6 +       H         1.000E+14   0.0   44000.0
 MEALL                =    C4H6 +       H         6.300E+14   0.0   49300.0
 MEALL  +     O2      =    C4H6 +     HO2         0.200E+10   0.0   -1506.0
 MEALL  +  AC3H5      =    C4H6 +    C3H6         6.300E+12   0.0       0.0
  C4H6                =    C2H4 +    C2H2         1.000E+14   0.0   75000.0
  C4H6                =   NC4H5 +       H         1.580E+16   0.0  110000.0
  C4H6  +    HO2      =   NC4H5 +    H2O2         2.000E+11   0.0   12600.0
  C4H6  +    HO2      =   IC4H5 +    H2O2         1.000E+11   0.0    9920.0
  C4H6  +     OH      =   NC4H5 +     H2O         1.000E+07   2.0    7253.0
  C4H6  +     OH      =   IC4H5 +     H2O         8.000E+06   2.0    3744.0
  C4H6  +      O      =   IC4H5 +      OH         4.530E+15  -0.475  7028.0
  C4H6  +      O      =   NC4H5 +      OH         2.270E+15  -0.475  7028.0
  C4H6  +      H      =   NC4H5 +      H2         5.000E+15   0.0   22800.0
  C4H6  +    CH3      =   IC4H5 +     CH4         4.000E+14   0.0   22800.0
 IC4H5  +     O2      =  C2H3CO +    CH2O         2.000E+11   0.0   14000.0
 IC4H5  +      O      =>  CH2CO +    C2H3         1.000E+13   0.0    2000.0
 IC4H5  +    HO2      =   CH2CO +    C2H3 +    OH 1.000E+12   0.0    2000.0
 NC4H5                =    C2H3 +    C2H2         5.000E+13   0.0   44000.0
 NC4H5  +     O2      =   ACROL +     HCO         2.000E+11   0.0   14000.0
 NC4H5  +    HO2      =>  AC3H5 +      CO +    OH 1.000E+13   0.0       0.0
 IC4H5  +   CH2O      =    C4H6 +     HCO         4.000E+12   0.0    8840.0
  C4H4                =    C2H2 +    C2H2         3.200E+13   0.0   77100.0
  C4H4                =    C4H2 +      H2         1.260E+15   0.0   94700.0
  C4H4  +     OH      =   IC4H3 +     H2O         2.000E+07   2.0    2000.0
  C4H4  +    CH3      =   IC4H3 +     CH4         1.660E+01   3.7    9499.0
 IC4H3  +     O2      =   CH2CO +    HCCO         1.000E+12   0.0       0.0
 IC4H3  +     OH      =    C4H2 +     H2O         3.000E+13   0.0       0.0
 IC4H3  +      O      =   CH2CO +     C2H         2.000E+13   0.0       0.0
 IC4H3  +      H      =    C4H2 +      H2         5.000E+13   0.0       0.0
  C2H2  +    C2H      =    C4H2 +       H         1.820E+14   0.0     467.0
  C4H2  +      M      =     C4H +       H +     M 3.500E+17   0.0   80065.0
   C4H  +     O2      =     C2H +      CO +    CO 1.000E+14   0.0       0.0
  C6H6                =    C4H4 +    C2H2         9.000E+15   0.0  107430.0
  C5H5  +    HO2      = C5H5O13 +      OH         2.000E+13   0.0       0.0
  C5H5  +     OH      =  C5H4OH +       H         3.000E+14   0.0       0.0
  C5H5  +     OH      =    C4H6 +      CO         1.500E+14   0.0       0.0
  C5H5  +      H (+M) =     CPD (+M)              1.000E+14   0.0       0.0
  LOW /4.40e80 -18.28 12994/
  TROE /0.068 400 4136 5500/
 C5H4O  +      H      =   NC4H5 +      CO         1.710E+13   0.0       0.0
  C5H5  +      O      =   C5H4O +       H         5.000E+14   0.0       0.0
C5H5O13               =   NC4H5 +      CO         2.510E+11   0.0   43900.0
C5H4OH                =   C5H4O +       H         2.100E+13   0.0   48000.0
 C5H4O                =>     CO +    C4H4         1.000E+12   0.0   53000.0
   CPD  +     O2      =    C5H5 +     HO2         2.000E+13   0.0   25000.0
   CPD  +     OH      =    C5H5 +     H2O         3.430E+09   1.18   -447.0
   CPD  +      H      =    C5H5 +      H2         2.190E+08   1.77   3000.0
  C6H5  +      H      =    C6H6                   2.200E+14   0.0       0.0
  C6H6  +     OH      =    C6H5 +     H2O         2.110E+13   0.0    4570.0
  C6H6  +      O      =   C6H5O +       H         3.560E+01   3.8     940.0
  C6H6  +    CH3      =    C6H5 +     CH4         2.000E+12   0.0   15000.0
  C6H5  +     O2      =   C6H5O +       O         2.090E+12   0.0    7470.0
  C6H5  +    HO2      =   C6H5O +      OH         5.000E+13   0.0    1000.0
  C6H5  +     OH      =   C6H5O +       H         5.000E+13   0.0       0.0
  C6H5  +   C2H4      =  STYREN +       H         1.430E+08   1.22   3540.0
 C6H5O                =    C5H5 +      CO         5.000E+15   0.0   64000.0
 C6H5O  +      H (+M) =  C6H5OH (+M)              2.500E+14   0.0       0.0
  LOW /1.00e94 -21.84 13880/
  TROE /0.043 304 60000 5900/
C6H5OH  +     OH      =   C6H5O +     H2O         6.000E+12   0.0       0.0
C6H5OH  +      H      =    C6H6 +      OH         2.210E+13   0.0    7910.0
C6H5OH  +      H      =   C6H5O +      H2         1.150E+14   0.0   12400.0
C6H5OH  +      O      =   C6H5O +      OH         2.810E+13   0.0    7352.0
C6H5OH  +    CH3      =   C6H5O +     CH4         3.000E+02   3.0    7650.0
TOLUEN                =   PHCH2 +       H         3.000E+15   0.0   88194.0
TOLUEN  +     O2      =   PHCH2 +     HO2         3.000E+14   0.0   43062.0
TOLUEN  +    HO2      =   PHCH2 +    H2O2         3.000E+14   0.0   22010.0
TOLUEN  +     OH      =   PHCH2 +     H2O         1.000E+13   0.0    2180.0
TOLUEN  +      H      =   PHCH2 +      H2         1.260E+14   0.0    8364.0
TOLUEN  +      H      =    C6H6 +     CH3         2.400E+13   0.0    5123.0
 PHCH2                =    C5H5 +    C2H2         6.030E+13   0.0   70000.0
 PHCH2  +    HO2      =  PHCH2O +      OH         3.160E+12   0.0       0.0
 PHCH2O               =   PHHCO +       H         1.300E+14   0.0    1100.0
 PHCH2  +      O      =   PHHCO +       H         1.580E+13   0.0       0.0
 PHCH2  +      O      =    C6H5 +    CH2O         1.000E+13   0.0       0.0
 PHHCO                =    PHCO +       H         3.980E+15   0.0   83701.0
 PHHCO  +     O2      =    PHCO +     HO2         1.020E+13   0.0   39000.0
 PHHCO  +    HO2      =    PHCO +    H2O2         2.000E+12   0.0   11665.0
 PHHCO  +     OH      =    PHCO +     H2O         1.710E+09   1.18   -447.0
 PHHCO  +      H      =    PHCO +      H2         5.000E+13   0.0    4928.0
 PHHCO  +    CH3      =    PHCO +     CH4         2.770E+03   2.81   5773.0
  PHCO                =    C6H5 +      CO         3.980E+14   0.0   29401.0
APHC2H4               =    C6H5 +    C2H4         1.000E+14   0.0   35000.0
STYREN                =    C6H6 +    C2H2         1.600E+11   0.0   58438.0
AC5H11                =    C2H4 +   NC3H7         4.500E+13   0.0   28700.0
AC5H10                =    C2H5 +   AC3H5         1.000E+16   0.0   70746.0
AC5H10  +     O2      =  C5H913 +     HO2         2.700E+13   0.0   37000.0
AC5H10  +     OH      =  C5H913 +     H2O         2.250E+13   0.0    2217.0
C5H913                =    C4H6 +     CH3         2.500E+13   0.0   45000.0
C5H913                =  C5H813 +       H         8.000E+13   0.0   47000.0
 NC4H5  +    CH3      =  C5H813                   2.000E+13   0.0       0.0
 IC4H5  +    CH3      =  C5H813                   4.800E+37  -7.581 11359.0
C5H813  +     O2      =   ACROL +  CH3HCO         2.000E+08   1.5   30200.0
C5H813  +     OH      =  CH3HCO +   AC3H5         6.000E+12   0.0    -393.0
C5H813  +     OH      =    CH2O +   MEALL         6.000E+12   0.0    -393.0
C5H813  +      O      =   ACROL +    C2H4         4.500E+08   1.45   -858.0
C5H813  +      O      =    CH2O +    C4H6         4.500E+08   1.45   -858.0
C5H813  +      H      =    C5H7 +      H2         7.000E+06   2.0       0.0
C5H813  +      H      =   AC3H5 +    C2H4         3.350E+08   1.5    2000.0
C5H813  +     OH      =    C5H7 +     H2O         7.000E+06   2.0       0.0
  C5H7                =     CPD +       H         2.000E+11   0.0   18000.0
AC6H13                =  BC6H13                   2.000E+11   0.0   11100.0
BC6H13                =    C3H6 +   NC3H7         5.000E+13   0.0   28700.0
AC6H13                =    C2H4 +   PC4H9         1.000E+13   0.0   28700.0
AC6H12                =   NC3H7 +   AC3H5         8.162E+15   0.0   70830.0
AC6H12  +     OH      = C6H1113 +     H2O         2.000E+13   0.0    2600.0
AC7H15                =  CC7H15                   2.000E+11   0.0   11100.0
CC7H15                =    C4H8 +   NC3H7         2.000E+13   0.0   28700.0
AC7H15                =    C2H4 +  AC5H11         2.000E+13   0.0   28700.0
AC7H14                =   PC4H9 +   AC3H5         1.550E+19  -1.0   73400.0
DC8H17                =    C2H5 +  AC6H12         2.00E+13    0.0   29700.0
DC8H17                =   NC3H7 +  AC5H10         2.00E+13    0.0   28700.0
AC8H17                =  AC6H13 +    C2H4         2.00E+13    0.0   28700.0
AC8H17                =  DC8H17                   2.00E+11    0.0   11100.0
DUPLICATE
AC8H17                =  DC8H17                   2.00E+11    0.0   18100.0
DUPLICATE
AC9H18                =  AC6H13 +   AC3H5         1.00E+16    0.0   71000.0
NC10H22               =  AC8H17 +    C2H5         1.00E+17    0.0   79900.0
NC10H22               =  AC7H15 +   NC3H7         1.00E+17    0.0   84300.0
NC10H22               =  AC6H13 +   PC4H9         1.00E+17    0.0   82200.0
NC10H22 +     O2      = BC10H21 +     HO2         1.400E+13   0.0   48000.0
NC10H22 +    HO2      = AC10H21 +    H2O2         1.12E+13    0.0   19400.0
NC10H22 +    HO2      = BC10H21 +    H2O2         6.72E+12    0.0   18500.0
NC10H22 +    HO2      = CC10H21 +    H2O2         6.72E+12    0.0   18500.0
NC10H22 +    HO2      = DC10H21 +    H2O2         6.72E+12    0.0   18500.0
NC10H22 +    HO2      = EC10H21 +    H2O2         6.72E+12    0.0   18500.0
NC10H22 +     OH      = AC10H21 +     H2O         1.412E+07   1.8     973.7
NC10H22 +     OH      = BC10H21 +     H2O         1.995E+06   2.0    -596.2
NC10H22 +     OH      = CC10H21 +     H2O         2.253E+06   2.0   -1391.0
NC10H22 +     OH      = DC10H21 +     H2O         2.253E+06   2.0   -1391.0
NC10H22 +     OH      = EC10H21 +     H2O         2.253E+06   2.0   -1391.0
NC10H22 +      O      = AC10H21 +      OH         4.360E+06   2.4    5500.0
NC10H22 +      O      = BC10H21 +      OH         1.128E+03   3.27   1653.0
NC10H22 +      O      = CC10H21 +      OH         1.128E+03   3.27   1653.0
NC10H22 +      O      = DC10H21 +      OH         1.128E+03   3.27   1653.0
NC10H22 +      O      = EC10H21 +      OH         1.128E+03   3.27   1653.0
NC10H22 +      H      = AC10H21 +      H2         5.63E+07    2.0    7700.0
NC10H22 +      H      = BC10H21 +      H2         1.80E+07    2.0    5000.0
NC10H22 +      H      = CC10H21 +      H2         1.80E+07    2.0    5000.0
NC10H22 +      H      = DC10H21 +      H2         1.80E+07    2.0    5000.0
NC10H22 +      H      = EC10H21 +      H2         1.80E+07    2.0    5000.0
NC10H22 +    CH3      = AC10H21 +     CH4         1.300E+12   0.0   11600.0
NC10H22 +    CH3      = BC10H21 +     CH4         8.000E+11   0.0    9500.0
NC10H22 +    CH3      = CC10H21 +     CH4         8.000E+11   0.0    9500.0
NC10H22 +    CH3      = DC10H21 +     CH4         8.000E+11   0.0    9500.0
NC10H22 +    CH3      = EC10H21 +     CH4         8.000E+11   0.0    9500.0
CC10H21               =     CH3 +  AC9H18         2.00E+13    0.0   31000.0
EC10H21               =   NC3H7 +  AC7H14         2.00E+13    0.0   28700.0
EC10H21               =   PC4H9 +  AC6H12         2.00E+13    0.0   28700.0
DC10H21               =  AC5H11 +  AC5H10         2.00E+13    0.0   28700.0
CC10H21               =  AC6H13 +    C4H8         2.00E+13    0.0   28700.0
BC10H21               =  AC7H15 +    C3H6         2.00E+13    0.0   28700.0
AC10H21               =  AC8H17 +    C2H4         2.00E+13    0.0   28700.0
AC10H21               = EC10H21                   2.00E+11    0.0   11100.0
EC10H21               = BC10H21                   2.00E+11    0.0   11100.0
DC10H21              => CC10H21                   2.00E+11    0.0   11100.0
CC10H21              => DC10H21                   2.00E+11    0.0   11100.0
CYC6H11               = C6H1116                   2.000E+13   0.0   30000.0
C6H1116               = C6H1113                   2.000E+11   0.0   18100.0
C6H1116               = C6H1112                   1.000E+11   0.0   11100.0
C6H1112               = C6H1115                   2.000E+11   0.0   18100.0
C6H1115               =   AC3H5 +    C3H6         1.000E+12   0.0   36000.0
C6H1113               =    C2H5 +    C4H6         1.000E+12   0.0   45500.0
CYC9H18 +     O2      = BC9H17C +     HO2         4.000E+13   0.0   49510.0
CYC9H18 +     O2      = CC9H17C +     HO2         4.000E+13   0.0   49510.0
CYC9H18 +     O2      = EC9H17C +     HO2         8.000E+13   0.0   49910.0
CYC9H18 +     O2      = FC9H17C +     HO2         8.000E+13   0.0   49910.0
CYC9H18 +    HO2      = BC9H17C +    H2O2         9.640E+03   2.6   13910.0
CYC9H18 +    HO2      = CC9H17C +    H2O2         9.640E+03   2.6   13910.0
CYC9H18 +    HO2      = EC9H17C +    H2O2         1.930E+04   2.6   13910.0
CYC9H18 +    HO2      = FC9H17C +    H2O2         1.930E+04   2.6   13910.0
CYC9H18 +     OH      = AC9H17C +     H2O         1.580E+07   1.8     934.0
CYC9H18 +     OH      = BC9H17C +     H2O         1.500E+09   1.0     260.0
CYC9H18 +     OH      = CC9H17C +     H2O         1.500E+09   1.0     260.0
CYC9H18 +     OH      = EC9H17C +     H2O         5.500E+12   0.0     790.0
CYC9H18 +     OH      = FC9H17C +     H2O         5.500E+12   0.0     790.0
CYC9H18 +      O      = EC9H17C +      OH         8.660E+05   2.6    2563.0
CYC9H18 +      O      = FC9H17C +      OH         8.660E+05   2.6    2563.0
CYC9H18 +      H      = AC9H17C +      H2         6.650E+05   2.54   6756.0
CYC9H18 +      H      = BC9H17C +      H2         1.300E+06   2.4    4471.0
CYC9H18 +      H      = CC9H17C +      H2         1.300E+06   2.4    4471.0
CYC9H18 +      H      = EC9H17C +      H2         2.000E+14   0.0    8373.0
CYC9H18 +      H      = FC9H17C +      H2         2.000E+14   0.0    8373.0
CYC9H18 +    CH3      = BC9H17C +     CH4         1.510E+00   3.46   5481.0
CYC9H18 +    CH3      = CC9H17C +     CH4         1.510E+00   3.46   5481.0
CYC9H18 +    CH3      = EC9H17C +     CH4         4.500E+11   0.0    9540.0
CYC9H18 +    CH3      = FC9H17C +     CH4         4.500E+11   0.0    9540.0
CYC9H18 +  AC3H5      = AC9H17C +    C3H6         4.522E-01   3.65   7154.0
CYC9H18               = CYC6H11 +   NC3H7         6.500E+16   0.0   84000.0
CYC9H18               =>  3C2H4 +    C3H6         1.300E+17   0.0   84000.0
CYC9H18               =>  2C2H4 +  AC5H10         1.300E+17   0.0   84000.0
CYC9H18               =>   C2H4 +   NC3H7 + C4H73 1.300E+17   0.0   84000.0
EC9H17C               = BC9H17C                   4.000E+11   0.0   16100.0
FC9H17C               = BC9H17C                   4.000E+11   0.0   11100.0
EC9H17C               = AC9H17C                   4.000E+11   0.0   11100.0
BC9H17C               = CYC6H11 +    C3H6         2.000E+13   0.0   42000.0
CC9H17C               =>  2C2H4 +  C5H913         2.000E+13   0.0   42000.0
PHC3H7  +      H      = APHC3H6 +      H2         1.330E+06   2.54   6756.0
PHC3H7  +     OH      = APHC3H6 +     H2O         3.160E+07   1.8     934.0
PHC3H7  +    CH3      = APHC3H6 +     CH4         5.000E+12   0.0   11710.0
APHC3H6               =   PHCH2 +    C2H4         1.000E+14   0.0   13000.0
PHC3H7  +     OH      = BPHC3H6 +     H2O         7.080E+06   1.9    -159.0
PHC3H7  +  AC3H5      = BPHC3H6 +    C3H6         7.940E+11   0.0   16200.0
PHC3H7  +  PHCH2      = BPHC3H6 +  TOLUEN         7.940E+11   0.0   16200.0
BPHC3H6               =    C6H5 +    C3H6         1.000E+14   0.0   34800.0
BPHC3H6               = BPHPROPY                  2.000E+11   0.0   20000.0
BPHPROPY              =  STYREN +     CH3         1.000E+14   0.0   24000.0
PHC3H7  +     OH      = CPHC3H6 +     H2O         7.080E+06   1.9   -1159.0
PHC3H7  +     O2      = CPHC3H6 +     HO2         4.000E+13   0.0   35800.0
PHC3H7  +  PHCH2      = CPHC3H6 +  TOLUEN         7.940E+11   0.0   16200.0
CPHC3H6               =  STYREN +     CH3         1.000E+14   0.0   34850.0
PHC3H7                =   PHCH2 +    C2H5         5.000E+16   0.0   73500.0
PHC3H7                = APHC2H4 +     CH3         5.000E+16   0.0   78500.0
AC6H12+OH=>CH2O+AC5H11 1.4E12 0.0 -1000.0
AC5H10+OH=>CH2O+PC4H9  1.4E12 0.0 -1000.0
C6H1113+O2=>CH2O+ACROL+C2H5   3.0E12 0.0  -250.0
C5H913+O2=>CH2O+ACROL+CH3     3.0E12 0.0  -250.0
CH3+O2 (+M)=CH3O2 (+M)       7.830E+08  1.20      0.0
 LOW/ 5.8E+25 -3.30 0.0 /
TROE/ 0.664 100000 10/
CH3O2+CH3=CH3O+CH3O          8.170E+12  0.0    -906.0
CH3O2+H=CH3O+OH              9.600E+13  0.0       0.0
C2H5+O2=C2H5O2               5.170E+35 -7.63   6033.0
OH  +     OH  (+M)=    H2O2 (+M)              7.224E+13  -0.37      0.0
     LOW / 2.211E+19  -0.76      0.0/
     TROE / 0.5 1.0E+08 1.0e-06/
CH3  +    CH3 (+M) =    C2H6 (+M)              3.612E+13   0.0       0.0
     LOW / 1.268E+41 -7.0 2762.0/
     TROE / 0.62 73.0 1180.0/
H  +   C2H5 (+M) =    C2H6 (+M)              5.210E+17  -0.99   1580.0
     LOW  /  1.990E+41   -7.080   6685.00/
     TROE/   .8422  125.00  2219.00  6882.00 /
     H2/2.00/ H2O/6.00/ CH4/2.00/ CO/1.50/ CO2/2.00/ C2H6/3.00/
C2H4  +      H  (+M)=    C2H5 (+M)              3.973E+09   1.283  1292.0
     LOW / 2.791E+18 0.0 755.0/
     TROE / 0.76 40.0 1025.0/
C3H6 +       H(+M) = NC3H7(+M)                    1.33E+13    0.00   3260.7
     LOW / 6.26E+38   -6.66   7000.0 /
     TROE / 1.0   1000.0 1310.0 48097.0 /
     H2O /6.0/ H2/2.0/ CO2/2.0/ CO/1.5/
NC3H7(+M)            =    C2H4 +     CH3(+M)     1.23E+13   -0.1   30202.0
     LOW / 5.545E+49  -10.0  35766.0 /
     TROE / 2.17   1.0E-15   251.0   1185.0 /
     H2O /5.0/ H2/2.0/ CO2/3.0/ CO/2.0/
AC3H5+H(+M) <=> C3H6(+M)       3.70E+14   0.00      0.0
     LOW  / 1.33E+60 -12.00   5967.8      /
     TROE / 0.020  1096.6  1096.6  6859.5 /
IC4H5  (+M)          =    C4H4 +       H (+M)    1.000E+14   0.0   50000.0
     LOW / 2.000E+15 0.0 42000.0/
IC4H3  (+M)          =    C4H2 +       H (+M)    1.000E+14   0.0   55000.0
     LOW / 2.500E+15 0.0 48000.0/
   CH3+      OH    =   CH2OH+       H         1.990E+19 -1.68  11157.0
  C2H5+      O2    =    C2H4+     HO2         1.010E+31 -5.81  15860.0
  C2H3+      O2    =  CH2HCO+       O         1.943E+18 -1.629  8635.0
  C2H3+      O2    =    CH2O+     HCO         1.133E+26 -4.13   8216.0
  C2H2+     CH3    =   AC3H5                  5.485E+09  1.023 18242.0
  C2H2+     CH3    =   SC3H5                  1.696E+41 -8.957 18113.0
END
