ELEMENTS
O  H  C  N  AR   
END
!
SPECIES
!======C0
AR         H          H2         H2O        O2
!======C1
C          CS         CH         CH2        CH2*       CH3        CH4        
CO         CO2 
!======C2
C2H        C2H2       H2CC       C2H3       C2H4       C2H5       C2H6 
!======C3
C3H2       C3H3       pC3H4      aC3H4      cC3H4      aC3H5      CH3CCH2    
CH3CHCH     C3H6      nC3H7      iC3H7      C3H8
!======C4
C4H        C4H2       C4H4       C4H6       nC4H3      iC4H3      nC4H5      
iC4H5      C4H5-2     c-C4H5     C4H612     C4H6-2     C4H7       iC4H7      
C4H81      C4H82      iC4H8      pC4H9      sC4H9      iC4H9      tC4H9      
C4H10      iC4H10
!======C5
C5H2       C5H3       C5H4       C5H5       C5H6       lC5H7
!======C6
C6H        C6H2       C6H3       l-C6H4     o-C6H4     nC6H5      A1-        
i-C6H5     A1         l-C6H6     n-C6H7     c-C6H7     i-C6H7     C6H8
fulvene
!======C7
C7H5       C7H6   C5H5C2H  C5H5CHCH  C6H4CH3    A1CH2      A1CH3
!======C8
C8H        C8H2       A1C2H-     A1C2H*     A1C2H      i-A1C2H2   n-A1C2H2   
A1C2H3*    A1C2H3     A1C2H4*    A1C2H5
!======C9
A1C3H2     C9H7       C9H8       
!======C10
C10H       C10H2      A1C2H)2    naphthyne  A2-1       A2-2       A1C2HC2H2  
A2         C10H9      C10H10
!======C12
A2C2HA*    A2C2HB*    A2R5-      A2C2HA     A2C2HB     A2R5       HA2R5      
BIPHEN     P2-        P2         P2-H       A2C2H2
!======C13
C13H9      C13H10     BENZYLBJ   C13H12                       
!======C14
A2C2H)2    A3-4       A3-1       A3         A3L        A2R5R5     C14H12
C14H14     A3CH2R     A3C2H2     A4-        A4         A3C2H 
!
!
!
!
!
REACTIONS
C2H2=2CS+H2                                   5.5E+03    0.0        0.0     !Est. reactions to simulate the carbon deposition

!                     reactions of A1CH3
A1CH3=A1CH2+H                                 2.83e64   -13.99  120613.0     !refit 20 Torr    see text
A1CH3=A1-+CH3                                 2.16E88   -20.61  144292.0     !refit 20 Torr    see text
A1CH3+H=A1CH2+H2                              6.47E00     3.98    3394.0     !2006 Oehlschlaeger MA.   
A1CH3+H=A1+CH3                                1.56E+13    0.0     5796.0     !2005 combustion DATA
A1CH3+H=A1-+CH4                               6.00E-01    5.0    30000.0     !Est.
A1CH3+H=C6H4CH3+H2                            6.00E+08    1.0    16800.0     !2005 Bounaceur   
C6H4CH3+H=A1CH3                               3.00E+13    0.0        0.0     !2005 Bounaceur       /3
C6H4CH3+H=A1CH2+H                             1.00E+13    0.0        0.0     !2005 Bounaceur
A1CH3+CH3=A1CH2+CH4                           3.16E+11    0.0     9500.0     !USC Mech V2.0 (76-KER-PAR)
A1CH3+A1-=A1CH2+A1                            2.10E+12    0.0     4400.0     !USC Mech V2.0 (88-FAH-STE)
A1CH3+C5H5=A1CH2+C5H6                         2.10E+12    0.0     4400.0     !Ref to A1CH3+A1-=A1CH2+A1

!
!                     reactions of A1CH2
A1CH2=C5H5+C2H2                               3.00E+12    0.0    70000.0     !1994  Colket   /10 
A1CH2=C7H6+H                                  4.38E+13    0.078  75900.0     !refit 0.1atm  see text
A1CH2+H=C7H6+H2                               5.00E+13    0.0        0.0     !Est.
A1CH2+H=A1-+CH3                               4.5E+58   -11.9    51860.0     !2007 Klippenstein
!
!                 reactions of C7H5 and C7H6
C7H6+H=>C5H5+C2H2                             3.00E+14    0.0        0.0     !2009 Detilleux and Vandooren
C7H5+H=C7H6                                   2.00E+12    0.0        0.0     !Est.
C7H6+CH3=C7H5+CH4                             1.87E+04    2.724   6008.0     !2009 Da Silva C7H5 
C7H6+H=C7H5+H2                                1.90E+08    1.847   4965.0     !2009 Da silva C7H5
C7H5+H=C5H4+C2H2                              1.00E+14    0.0        0.0     !Est. 
C7H5(+M) = C4H2+C3H3(+M)                      3.00E+12   -0.075  62300.0     !Ref C5H5=C3H3+C2H2
                                              LOW /1.00E+045 8.4   47500/
C7H5(+M) = C2H2+C5H3(+M)                      2E+11  -0.075         62300    !Ref C5H5=C3H3+C2H2
                                              LOW /1.00E+045 8.4   47500/
!
!                  reactions of A1- and A1
A1-+CH4=A1+CH3                                3.89E-03    4.6     5256.0     !USC Mech V2.0 (99-TOK-LIN)
A1-+C2H6=A1+C2H5                              2.10E+11    0.0     4443.0     !USC Mech V2.0 (01-PAR-LIN)
C5H6+A1-=C5H5+A1                              3.10E+11    0.0     5500.0     !2001 Mac&Bac
aC3H5+C3H3=fulvene+2H                         3.26E+29   -5.4     3390.0     !2009 Hansen, Miller et al. C3H4 MODEL
fulvene=A1                                    5.62E+81  -19.4   121500.0     !2009 Hansen, Miller et al. C3H4 MODEL
fulvene+H=A1+H                                3.00E+12    0.5     2000.0     !2009 Hansen, Miller et al. C3H4 MODEL
C3H3+C3H3=A1-+H                               2.02E+33   -6.0    15940.0     !2009 Hansen, Miller et al. C3H4 MODEL
C3H3+C3H3=fulvene                             7.25E+65  -16.0    25035.0     !2009 Hansen, Miller et al. C3H4 MODEL
duplicate
C3H3+C3H3=fulvene                             4.19E+39   -9.0     6098.0     !2009 Hansen, Miller et al. C3H4 MODEL
duplicate
C3H3+C3H3=A1                                  1.64E+66  -15.9    27529.0     !2009 Hansen, Miller et al. C3H4 MODEL
duplicate
C3H3+C3H3=A1                                  1.20E+35   -7.4     5058.0     !2009 Hansen, Miller et al. C3H4 MODEL
duplicate
nC4H3+C2H3=A1                                 2.87E+14    0.0      817.0     !2006 Brezinsky
aC3H4+C3H2=A1                                 7.40E+12   -0.7      920.0     !2002 D'Anna & Kent
pC3H4+C3H2=A1                                 1.40E+13   -0.8     1030.0     !2002 D'Anna & Kent
aC3H4+C3H3=A1+H                               2.20E+11    0.0     2000.0     !2002 D'Anna & Kent
iC4H5+C2H2=A1+H                               3.00E+11    0.0    14900.0     !2002 D'Anna & Kent
C4H4+C2H3=A1+H                                1.90E+12    0.0     2510.0     !MIT  Kubitza et al. '94, in Lindstedt/Skevis '97
pC3H4+C3H3=A1+H                               2.20E+11    0.0     2000.0     !MIT  1987 Wu and Kern
C4H4+C2H2=A1                                  4.47E+11    0.0    30010.0     !MIT  1986 Chanmugathas/Heicklen 
A1-+H=A1                                      8.02E+19   -2.0     1968.0     !MIT  2001 Mebel et al. 100 torr
A1-+H2=A1+H                                   5.71E+04    2.4     6273.0     !1997 MEB-LIN
nC4H3+C2H2=A1-                                2.30E+68  -17.6    24400.0     !USC Mech V2.0  (20 Torr RRKM WAN/FRE)
nC4H5+C2H2=A1+H                               2.10E+15   -1.1     4800.0     !USC Mech V2.0  (20 Torr RRKM WAN/FRE)
nC4H5+C2H3=A1+H2                              1.84E-13    7.1    -3611.0     !USC Mech V2.0  (89WES/DEA)
C4H5-2+C2H2=A1+H                              5.00E+14    0.0    25000.0     !USC Mech V2.0
A1-=o-C6H4+H                                  3.00E+13    0.0    72923.0     !DATA   see Text
A1-+H=o-C6H4+H2                               2.00E+11    1.1    24500.0     !USC Mech V2.0  (01-MEB-LIN 1 atm)
!
!                    reactions of l-C6H5 ~ l-C6H8
l-C6H4+H=nC6H5                                3.30E+44  -10.0    18800.0     !ABF  (20 Torr RRKM)
nC6H5=A1-                                     1.30E+62  -15.9    35800.0     !ABF  (20 Torr RRKM)
nC6H5+H=C4H4+C2H2                             1.60E+19   -1.6     2220.0     !ABF  (20 Torr RRKM)
nC6H5+H=l-C6H6                                1.10E+42   -9.7     7000.0     !ABF  (20 Torr RRKM)
i-C6H5+H=l-C6H6                               4.20E+44  -10.3     7890.0     !ABF  (20 Torr RRKM)
nC6H5+H=l-C6H4+H2                             1.50E+13    0.0        0.0     !ABF
i-C6H5+H=l-C6H4+H2                            3.00E+13    0.0        0.0     !ABF
l-C6H6+H+M=n-C6H7+M                           2.90E+17   -0.5     1000.0     !ABF  (20 Torr RRKM)
l-C6H6+H+M=c-C6H7+M                           1.70E+28   -4.7     2800.0     !ABF  (20 Torr RRKM)
l-C6H6+H=A1+H                                 8.70E+16   -1.3     3500.0     !ABF  (20 Torr RRKM)
l-C6H6+H=nC6H5+H2                             6.65E+05    2.5    12240.0     !ABF
l-C6H6+H=i-C6H5+H2                            3.33E+05    2.5     9240.0     !ABF
n-C6H7=c-C6H7                                 4.10E+24   -7.1     3900.0     !ABF  (20 Torr RRKM)
n-C6H7=A1+H                                   8.40E+21   -4.2    11300.0     !ABF  (20 Torr RRKM) 
n-C6H7+H=i-C6H7+H                             4.00E+41   -8.1    19200.0     !ABF  (20 Torr RRKM)
i-C6H7+H=C6H8                                 1.20E+60  -13.9    21000.0     !ABF  (20 Torr RRKM)
n-C6H7+H=C6H8                                 8.70E+69  -17.0    24000.0     !ABF  (20 Torr RRKM)
n-C6H7+H=l-C6H6+H2                            1.50E+13    0.0        0.0     !ABF
i-C6H7+H=l-C6H6+H2                            3.00E+13    0.0        0.0     !ABF
C6H8+H=n-C6H7+H2                              1.33E+06    2.5    12240.0     !ABF
C6H8+H=i-C6H7+H2                              6.65E+05    2.5     9240.0     !ABF
A1+H=c-C6H7                                   3.20E+51  -12.6    13500.0     !ABF  (20 Torr RRKM)
!
!                    reactions of C6H4
l-C6H4+H=A1-                                  3.60E+77  -20.1    28100.0     !USC Mech V2.0  (20 Torr RRKM WAN/FRE)
l-C6H4+H=o-C6H4+H                             2.20E+47  -10.0    24000.0     !USC Mech V2.0  (20 Torr RRKM WAN/FRE)
l-C6H4+H=C6H3+H2                              1.33E+06    2.5     9240.0     !USC Mech V2.0
C3H2+C3H2=l-C6H4                              3.00E+11    0.0        0.0     !Est. ref: C3H3+C3H3=A1 (1987WU/KER6291)
C4H2+C2H2=l-C6H4                              4.47E+11    0.0    30010.0     !Est. ref: C4H4+C2H2=A1 (MIT)
o-C6H4=C4H2+C2H2                              2.00E+14    0.0    83000.0     !2007 C. Xu *, M. Braun-Unkhoff, C. Naumann, P. Frank   fall-off by 3
nC4H3+C2H2=l-C6H4+H                           3.70E+16   -1.2    11100.0     !USC Mech V2.0  (20 Torr RRKM WAN/FRE)
nC4H3+C2H2=o-C6H4+H                           1.90E+36   -7.2    17900.0     !USC Mech V2.0  (20 Torr RRKM WAN/FRE)
C4H4+C2H=l-C6H4+H                             1.20E+13    0.0        0.0     !USC Mech V2.0 
C6H3+H=l-C6H4                                 4.20E+44  -10.3     7890.0     !USC Mech V2.0  (20 Torr RRKM WAN/FRE)
C5H3+CH2=l-C6H4+H                             5.00E+13    0.0        0.0     !ABF
!
!                    reaction of C6H2
C6H+H(+M) = C6H2(+M)                         1.000E+17   -1.000     0.00     !ABF 
                                      LOW  /  3.750E+33   -4.800  1900.00   /
                                      TROE/  0.6464  132.00  1315.00 5566.0 /
C6H+H2=H+C6H2                                 4.90E+05    2.5      560.0     !Est. ref: C2H+H2=H+C2H2 (GRI)
C4H2+C2H=C6H2+H                               9.60E+13    0.0        0.0     !ABF
C2H2+C4H=C6H2+H                               9.60E+13    0.0        0.0     !ABF
C4H+C2H=C6H+H                                 5.00E+13    0.0        0.0     !Est.
C4H+C2H=C6H2                                  5.00E+13    0.0        0.0     !Est.
C3H2+C3H2=C6H2+H2                             7.00E+11    0.0        0.0     !Est.
C4H2+C2H=C6H3                                 4.50E+37   -7.7     7100.0     !USC Mech V2.0  (20 Torr RRKM WAN/FRE)
C6H2+H=C6H3                                   4.30E+45  -10.2    13250.0     !USC Mech V2.0  (20 Torr RRKM WAN/FRE)
C6H3+H=C4H2+C2H2                              2.40E+19   -1.6     2800.0     !USC Mech V2.0  (20 Torr RRKM WAN/FRE)
C6H3+H=C6H2+H2                                3.00E+13    0.0        0.0     !USC Mech V2.0  (97WAN/FRE)
C5H2+CH=C6H2+H                                5.00E+13    0.0        0.0     !ABF
C5H3+CH=C6H2+H+H                              5.00E+13    0.0        0.0     !ABF
!
!                 reactions of C5H5 and C5H6
C5H6+C2H3=C5H5+C2H4                           6.00E+12    0.0        0.0     !2001 Mac&Bac 
C5H6+CH3=C5H5+CH4                             5.00E+11    0.0     5000.0     !2001 Mac&Bac
C5H5(+M)=C2H2+C3H3(+M)                        6.31E+13   -0.075  62300.0     !2009 Detilleux and Vandooren (KERN ET AL. 1998)
                                              LOW /1.00E+45 8.4   47500/

C5H6(+M)=C5H5+H(+M)                           7.65E+19   -1.18   84473.0     !2009 Detilleux and Vandooren (ROY ET AL. 2001)
                                              LOW / 1.07E+80 -16.788 16985/
C4H5-2+C2H4=C5H6+CH3                          5.00E+14    0.0    25000.0     !USC Mech V2.0 
C4H6+C2H3=C5H6+CH3                            5.00E+14    0.0    25000.0     !Est
C5H6+H=C2H2+aC3H5                             7.74E+36   -6.2    32890.0     !USC Mech V2.0  (98-ZHO-BOZ)
C5H6+H=lC5H7                                  8.27+126  -32.3    82348.0     !USC Mech V2.0  (02-MOS-LIN)
aC3H5+C2H2=lC5H7                              8.38E+30   -6.2    12824.0     !USC Mech V2.0 (90DEAN)
aC3H5+C2H3=lC5H7+H                            1.00E+13    0.0        0.0     !USC Mech V2.0
!
!                 reactions of C5H3 and C5H4
C3H3+C2H2=C5H4+H                              2.35E+11    0.0     9995.2     !Est. ref: C3H3+C2H2=C5H5 (2002 Knyazev &slagle)
C4H2+CH3=C5H4+H                               2.40E+09    0.9    20700.0     !Est. ref: C2H2+CH3=aC3H4+H (USC Mech V2.0)
C4H+CH4=C5H4+H                                2.40E+09    0.9    20700.0     !Est. ref: C2H2+CH3=aC3H4+H (USC Mech V2.0)
aC3H4+C2H=C5H4+H                              9.60E+13    0.0        0.0     !Est. ref: C2H2+C2H=C4H2+H (USC Mech V2.0)
C5H4+H=C5H3+H2                                1.00E+06    2.5     5000.0     !2000 est by Alzueta
C5H3+H=C5H4                                   1.00E+13    0.0        0.0     !
C5H3+H=C3H2+C2H2                              5.00E+13    0.0        0.0     !Est
C5H3+CH3=C2H2+C4H4                            2.00E+13    0.0        0.0     !Est
!
!                    reactions of C4H8 and C4H10
C2H5+C2H3(+M) = C4H81(+M)                     1.50E+13    0.0        0.0     !USC Mech V2.0  (86TSA/HAM) 
                                       LOW  / 1.55E+56 -11.79     8984.5    /
                                       TROE / 0.198 2277.9 60000.0 5723.2   /
                                        H2/2/ H2O/6/ CH4/2/ CO/1.5/ 
                                        CO2/2/ C2H6/3/ AR/0.7/
aC3H5+CH3(+M) = C4H81(+M)                     1.00E+14   -0.32    -262.3     !USC Mech V2.0 (91TSA)
                                       LOW  / 3.91E+60 -12.81     6250.0    /
                                       TROE / 0.104  1606.0 60000.0  6118.4 /
                                       H2/2/ H2O/6/ CH4/2/ CO/1.5/ 
                                       CO2/2/ C2H6/3/ AR/0.7/
C4H7+H(+M) = C4H81(+M)                        3.60E+13    0.00       0.0     !USC Mech V2.0
                                       LOW  / 3.01E+48  -9.32      5833.6   /
                                       TROE / 0.498  1314.0  1314.0 50000.0 /
                                       H2/2/ H2O/6/ CH4/2/ CO/1.5/ 
                                       CO2/2/ C2H6/3/ AR/0.7/
iC4H7+H(+M) = iC4H8(+M)                       2.00E+14    0.00       0.0     !USC Mech V2.0
                                       LOW  / 1.33E+60 -12.00      5967.8   /
                                       TROE / 0.020  1096.6  1096.6  6859.5 /
                                       H2/2/ H2O/6/ CH4/2/ CO/1.5/ 
                                       CO2/2/ C2H6/3/ AR/0.7/
C4H81+H(+M) = pC4H9(+M)                       1.33E+13    0.00     3260.7    !USC Mech V2.0
                                       LOW  / 6.26E+38  -6.66      7000.0   /
                                       TROE / 1.000  1000.0  1310.0 48097.0 /
                                       H2/2/ H2O/6/ CH4/2/ CO/1.5/ 
                                       CO2/2/ C2H6/3/ AR/0.7/
C4H81+H(+M) = sC4H9(+M)                       1.33E+13    0.00     1559.8    !USC Mech V2.0
                                       LOW  / 8.70E+42  -7.50      4721.8   /
                                       TROE / 1.000  1000.0   645.4  6844.3 /
                                       H2/2/ H2O/6/ CH4/2/ CO/1.5/ 
                                       CO2/2/ C2H6/3/ AR/0.7/     
C4H82+H(+M) = sC4H9(+M)                       1.33E+13    0.0      1559.8    !USC Mech V2.0
                                       LOW  / 8.70E+42   -7.50      4721.8   /
                                       TROE / 1.000  1000.0   645.4  6844.3 /
                                       H2/2/ H2O/6/ CH4/2/ CO/1.5/ 
                                       CO2/2/ C2H6/3/ AR/0.7/
iC4H8+H(+M) = iC4H9(+M)                       1.33E+13    0.0      3260.7    !USC Mech V2.0
                                       LOW  / 6.26E+38  -6.66      7000.0  /
                                       TROE / 1.000  1000.0  1310.0 48097.0 /
                                       H2/2/ H2O/6/ CH4/2/ CO/1.5/ 
                                       CO2/2/ C2H6/3/ AR/0.7/
pC4H9+H(+M) = C4H10(+M)                       3.60E+13    0.0         0.0    !USC Mech V2.0
                                       LOW  / 3.01E+48  -9.32      5833.6   /
                                       TROE / 0.498  1314.0  1314.0 50000.0 /
                                       H2/2/ H2O/6/ CH4/2/ CO/1.5/ 
                                       CO2/2/ C2H6/3/ AR/0.7/
 C3H6+CH3(+M) = sC4H9(+M)                     1.70E+11    0.0      7403.6    !USC Mech V2.0
                                       LOW  / 2.31E+28  -4.27      1831.0   /
                                       TROE / 0.565 60000.0   534.2  3007.2 /
                                       H2/2/ H2O/6/ CH4/2/ CO/1.5/ 
                                       CO2/2/ C2H6/3/ AR/0.7/
 sC4H9+H(+M) = C4H10(+M)                      2.40E+13    0.0         0.0    !USC Mech V2.0
                                       LOW  / 1.70E+58 -12.08     11263.7   /
                                       TROE / 0.649  1213.1  1213.1 13369.7 /
                                       H2/2/ H2O/6/ CH4/2/ CO/1.5/ 
                                       CO2/2/ C2H6/3/ AR/0.7/
C3H6+CH3(+M) = iC4H9(+M)                     9.60E+10   0.00      8003.6     !USC Mech V2.0
                                       LOW  / 1.30E+28  -4.27      2431.1   /
                                       TROE / 0.565 60000.0   534.2  3007.2 /
                                       H2/2/ H2O/6/ CH4/2/ CO/1.5/ 
                                       CO2/2/ C2H6/3/ AR/0.7/
iC4H9+H(+M) = iC4H10(+M)                     3.60E+13   0.00         0.0     !USC Mech V2.0
                                       LOW  / 3.27E+56 -11.74      6430.8   /
                                       TROE / 0.506  1266.6  1266.6 50000.0 /
                                       H2/2/ H2O/6/ CH4/2/ CO/1.5/ 
                                       CO2/2/ C2H6/3/ AR/0.7/
tC4H9(+M) = iC4H8+H(+M)                      8.30E+13   0.00     38150.4     !USC Mech V2.0
                                       LOW  / 1.90E+41  -7.36     36631.7   /
                                       TROE / 0.293   649.0 60000.0  3425.9 /
                                       H2/2/ H2O/6/ CH4/2/ CO/1.5/ 
                                       CO2/2/ C2H6/3/ AR/0.7/
tC4H9+H(+M) = iC4H10(+M)                     2.40E+13   0.00         0.0     !USC Mech V2.0
                                       LOW  / 1.47E+61 -12.94      8000.0   /
                                       TROE / 0.000  1456.4  1000.0 10000.5 /
                                       H2/2/ H2O/6/ CH4/2/ CO/1.5/ 
                                       CO2/2/ C2H6/3/ AR/0.7/
nC3H7+CH3(+M) = C4H10(+M)                    1.93E+14  -0.32         0.0     !USC Mech V2.0
                                       LOW  / 2.68E+61 -13.24      6000.0   /
                                       TROE / 1.000  1000.0  1433.9  5328.8 /
                                       H2/2/ H2O/6/ CH4/2/ CO/1.5/ 
                                       CO2/2/ C2H6/3/ AR/0.7/
C2H5+C2H5(+M) = C4H10(+M)                    1.88E+14  -0.50         0.0     !USC Mech V2.0
                                       LOW  / 2.61E+61 -13.42      6000.0   /
                                       TROE / 1.000  1000.0  1433.9  5328.8 /
                                       H2/2/ H2O/6/ CH4/2/ CO/1.5/ 
                                       CO2/2/ C2H6/3/ AR/0.7/
iC3H7+CH3(+M) = iC4H10(+M)                   1.40E+15  -0.68         0.0     !USC Mech V2.0
                                       LOW  / 4.16E+61 -13.33      3903.4   /
                                       TROE / 0.931 60000.0  1265.3  5469.8 /
                                       H2/2/ H2O/6/ CH4/2/ CO/1.5/ 
                                       CO2/2/ C2H6/3/ AR/0.7/        
C2H4+C2H3=C4H7                                1.23E+35   -7.8     9930.0     !USC Mech V2.0  (97WAN/FRE RRKM 0.1 atm)
CH3CCH2+CH3=iC4H8                             2.00E+13    0.0        0.0     !USC Mech V2.0
aC3H4+CH3=iC4H7                               2.00E+11    0.0     7500.0     !USC Mech V2.0
aC3H4+CH3=C4H7                                8.00E+12    0.0     7400.0     !2006 BATTIN C3H4 MODEL
C4H7=C4H6+H                                   2.48E+53  -12.3    52000.0     !USC Mech V2.0  (97WAN/FRE)
C4H7+H=CH3+aC3H5                              2.00E+21   -2.0    11000.0     !USC Mech V2.0
iC4H7+H=CH3CCH2+CH3                           2.20E+51  -10.0    37730.0     !USC Mech V2.0
C4H81+H=C2H4+C2H5                             1.60E+22   -2.4    11180.0     !USC Mech V2.0
C4H81+H=C3H6+CH3                              3.20E+22   -2.4    11180.0     !USC Mech V2.0
C4H81+H=C4H7+H2                               6.50E+05    2.5     6756.0     !USC Mech V2.0
C4H81+CH3=C4H7+CH4                            4.50E-01    3.6     7153.0     !USC Mech V2.0
C4H82+H=C4H7+H2                               3.40E+05    2.5     2490.0     !USC Mech V2.0
C4H82+CH3=C4H7+CH4                            4.40E+00    3.5     5675.0     !USC Mech V2.0
iC4H8+H=iC4H7+H2                              1.20E+06    2.5     6760.0     !USC Mech V2.0
iC4H8+H=C3H6+CH3                              8.00E+21   -2.4    11180.0     !USC Mech V2.0
iC4H8+CH3=iC4H7+CH4                           9.10E-01    3.6     7150.0     !USC Mech V2.0
C2H4+C2H5=pC4H9                               1.50E+11    0.0     7300.0     !USC Mech V2.0
pC4H9+H=C2H5+C2H5                             3.70E+24   -2.9    12505.0     !USC Mech V2.0
pC4H9+H=C4H81+H2                              1.80E+12    0.0        0.0     !USC Mech V2.0
pC4H9+CH3=C4H81+CH4                           1.10E+13    0.0        0.0     !USC Mech V2.0
sC4H9+H=C2H5+C2H5                             1.40E+28   -3.9    15916.0     !USC Mech V2.0
sC4H9+H=C4H81+H2                              3.20E+12    0.0        0.0     !USC Mech V2.0
sC4H9+H=C4H82+H2                              2.10E+12    0.0        0.0     !USC Mech V2.0
sC4H9+CH3=CH4+C4H81                           2.20E+14   -0.7        0.0     !USC Mech V2.0
sC4H9+CH3=CH4+C4H82                           1.50E+14   -0.7        0.0     !USC Mech V2.0
iC4H9+H=iC3H7+CH3                             1.90E+35   -5.8    22470.0     !USC Mech V2.0
iC4H9+H=iC4H8+H2                              9.00E+11    0.0        0.0     !USC Mech V2.0
iC4H9+CH3=iC4H8+CH4                           6.00E+12   -0.3        0.0     !USC Mech V2.0
tC4H9+H=iC3H7+CH3                             2.60E+36   -6.1    25640.0     !USC Mech V2.0
tC4H9+H=iC4H8+H2                              5.42E+12    0.0        0.0     !USC Mech V2.0
tC4H9+CH3=iC4H8+CH4                           3.80E+15   -1.0        0.0     !USC Mech V2.0
C4H10+H=pC4H9+H2                              9.20E+05    2.5     6756.0     !USC Mech V2.0
C4H10+H=sC4H9+H2                              2.40E+06    2.4     4471.0     !USC Mech V2.0
C4H10+CH3=pC4H9+CH4                           9.03E-01    3.6     7153.0     !USC Mech V2.0
C4H10+CH3=sC4H9+CH4                           3.00E+00    3.5     5480.0     !USC Mech V2.0
iC4H10+H=iC4H9+H2                             1.80E+06    2.5     6760.0     !USC Mech V2.0
iC4H10+H=tC4H9+H2                             6.00E+05    2.4     2580.0     !USC Mech V2.0
iC4H10+CH3=iC4H9+CH4                          1.36E+00    3.6     7150.0     !USC Mech V2.0
iC4H10+CH3=tC4H9+CH4                          9.00E-01    3.5     4600.0     !USC Mech V2.0
!
!                    reactions of C4H6
C3H3+CH3(+M)=C4H612(+M)                       1.50E+12    0.0        0.0     !USC Mech V2.0  (97WAN/FRE)
                                         LOW /2.60E+57  -11.94    9770.0    /
                                         TROE /0.175 1340.6 60000.0 9769.8  /
                                         H2/2.0/ H2O/6.0/ CH4/2.0/ CO/1.5/ 
                                         CO2/2.0/ C2H6/3.0/ AR/0.7/
H2CC+C2H4 = C4H6                              1.00E+12     0.0         0.0   !USC Mech V2.0 Estimated
C3H3+CH3=C4H612                               1.00E+13    0.0        0.0     !1987WU/KER6291
C3H3+CH3=C4H6-2                               1.00E+13    0.0        0.0     !1987WU/KER6291
C2H3+C2H2=nC4H5                               1.10E+32   -7.3     6200.0     !USC Mech V2.0  (20 Torr RRKM WAN/FRE)
C2H3+C2H2=iC4H5                               2.10E+36   -8.8     9100.0     !USC Mech V2.0  (20 Torr RRKM WAN/FRE)
C2H3+C2H3=C4H6                                7.00E+57  -13.8    17629.0     !USC Mech V2.0  (20 Torr RRKM WAN/FRE)
C2H3+C2H3=iC4H5+H                             1.50E+30   -5.0    12958.0     !USC Mech V2.0  (20 Torr RRKM WAN/FRE)
C2H3+C2H3=nC4H5+H                             1.10E+24   -3.3    12395.0     !USC Mech V2.0  (20 Torr RRKM WAN/FRE)
C3H6+C2H3=C4H6+CH3                            7.23E+11    0.0     5000.0     !USC Mech V2.0  (91TSA)
nC4H5=iC4H5                                   1.30E+62  -16.4    49600.0     !USC Mech V2.0  (20 Torr RRKM WAN/FRE)
nC4H5+H=iC4H5+H                               1.00E+36   -6.3    17486.0     !USC Mech V2.0  (20 Torr RRKM WAN/FRE)
iC4H5+H=C3H3+CH3                              2.00E+13    0.0     2000.0     !USC Mech V2.0
C4H5-2=iC4H5                                  1.50E+67  -16.9    59100.0     !USC Mech V2.0
iC4H5+H=C4H5-2+H                              3.10E+26   -3.4    17423.0     !USC Mech V2.0
C4H6=iC4H5+H                                  8.20E+51  -10.9   118409.0     !USC Mech V2.0  (20 Torr RRKM WAN/FRE)
C4H6=nC4H5+H                                  3.50E+61  -13.9   129677.0     !USC Mech V2.0  (20 Torr RRKM WAN/FRE)
C4H6+H=nC4H5+H2                               1.33E+06    2.5    12240.0     !USC Mech V2.0
C4H6+H=iC4H5+H2                               6.65E+05    2.5     9240.0     !USC Mech V2.0
C2H4+C2H3=C4H6+H                              7.40E+14   -0.7     8420.0     !USC Mech V2.0  (20 Torr RRKM WAN/FRE)
C4H6+CH3=nC4H5+CH4                            2.00E+14    0.0    22800.0     !USC Mech V2.0  (96HID/HIG)
C4H6+CH3=iC4H5+CH4                            1.00E+14    0.0    19800.0     !USC Mech V2.0  (96HID/HIG)
C4H6+C2H3=nC4H5+C2H4                          5.00E+13    0.0    22800.0     !USC Mech V2.0  (96HID/HIG)
C4H6+C2H3=iC4H5+C2H4                          2.50E+13    0.0    19800.0     !USC Mech V2.0  (96HID/HIG)
C4H6+C3H3=nC4H5+aC3H4                         1.00E+13    0.0    22500.0     !USC Mech V2.0  (96HID/HIG)
C4H6+C3H3=iC4H5+aC3H4                         5.00E+12    0.0    19500.0     !USC Mech V2.0  (96HID/HIG)
C4H6+aC3H5=nC4H5+C3H6                         1.00E+13    0.0    22500.0     !USC Mech V2.0
C4H6+aC3H5=iC4H5+C3H6                         5.00E+12    0.0    19500.0     !USC Mech V2.0
C4H6+C2H3=A1+H2+H                             5.62E+11    0.0     3240.0     !USC Mech V2.0  (95LEU/LIN)
C4H612=iC4H5+H                                4.20E+15    0.0    92600.0     !USC Mech V2.0  (95LEU/LIN)
C4H612+H=C4H6+H                               2.00E+13    0.0     4000.0     !USC Mech V2.0
C4H612+H=iC4H5+H2                             1.70E+05    2.5     2490.0     !USC Mech V2.0
C4H612+H=aC3H4+CH3                            2.00E+13    0.0     2000.0     !USC Mech V2.0  (97WAN/FRE)
C4H612+H=pC3H4+CH3                            2.00E+13    0.0     2000.0     !USC Mech V2.0  (97WAN/FRE)
C4H612+CH3=iC4H5+CH4                          7.00E+13    0.0    18500.0     !USC Mech V2.0  (88KER/SIN)
C4H612=C4H6                                   3.00E+13    0.0    65000.0     !USC Mech V2.0  (96HID/HIG)
C4H6-2=C4H6                                   3.00E+13    0.0    65000.0     !USC Mech V2.0  (96HID/HIG)
C4H6-2=C4H612                                 3.00E+13    0.0    67000.0     !USC Mech V2.0  (96HID/HIG)
C4H6-2+H=C4H612+H                             2.00E+13    0.0     4000.0     !USC Mech V2.0
C4H6-2+H=C4H5-2+H2                            3.40E+05    2.5     2490.0     !USC Mech V2.0
C4H6-2+H=CH3+pC3H4                            2.60E+05    2.5     1000.0     !USC Mech V2.0  (96HID/HIG)
C4H6-2=H+C4H5-2                               5.00E+15    0.0    87300.0     !USC Mech V2.0  (96HID/HIG)
C4H6-2+CH3=C4H5-2+CH4                         1.40E+14    0.0    18500.0     !USC Mech V2.0
C4H7+H=C4H6+H2                                1.80E+12    0.0        0.0     !USC Mech V2.0
C4H7+CH3=C4H6+CH4                             1.10E+13    0.0        0.0     !USC Mech V2.0
c-C4H5+H=C4H6                                 1.00E+13    0.0        0.0     !USC Mech V2.0
c-C4H5+H=C2H4+C2H2                            1.00E+13    0.0        0.0     !USC Mech V2.0
c-C4H5=C2H3+C2H2                              2.00E+12    0.0    58000.0     !USC Mech V2.0
!
!                    reactions of C4H4
C2H2+C2H (+M) = nC4H3 (+M)                    8.30E+10    0.9     -363.0     !USC Mech V2.0  (92WAN)
                                       LOW   /1.240E+31   -4.718   1871.00  /
                                       TROE  /1.0 100. 5613. 13387.         /
                                       H2/2.0/ H2O/6.0/ CH4/2.0/ CO/1.5/ 
                                       CO2/2.0/ C2H6/3.0/ C2H2/2.5/ C2H4/2.5/  
C2H2+C2H (+M) = iC4H3 (+M)                    8.30E+10    0.9     -363.00    !USC Mech V2.0  (92WAN)
                                       LOW   /1.240E+31   -4.718    1871.00 /
                                       TROE   /1.0 100. 5613. 13387.        /
                                       H2/2.0/ H2O/6.0/ CH4/2.0/ CO/1.5/
                                       CO2/2.0/ C2H6/3.0/ C2H2/2.5/ C2H4/2.5/ 
H2CC+C2H2 (+M) = C4H4 (+M)                   3.500E+05    2.055   -2400.00   !USC Mech V2.0  (99LAS/WAN)
                                       LOW /1.400E+60  -12.599    7417.00 /
                                       TROE /0.980 56.0 580.0 4164.0      /
                                       H2/2.0/ H2O/6.0/ CH4/2.0/ CO/1.5/  
                                       CO2/2.0/ C2H6/3.0/ C2H2/3.00/ C2H4/3.00/
C2H3+C2H2=C4H4+H                              5.00E+14   -0.7     6700.0     !USC Mech V2.0  (20 Torr RRKM WAN/FRE)
C2H4+C2H=C4H4+H                               1.20E+13    0.0        0.0     !USC Mech V2.0  (86TSA/HAM)
C3H2+CH2=nC4H3+H                              5.00E+13    0.0        0.0     !USC Mech V2.0
C3H2+CH3=C4H4+H                               1E+13       0.0        0.0     !Est.
C3H3+CH=iC4H3+H                               5.00E+13    0.0        0.0     !USC Mech V2.0
C3H3+CH2=C4H4+H                               5.00E+13    0.0        0.0     !USC Mech V2.0  (92MIL/MEL)
nC4H3+H=C4H4                                  1.10E+42   -9.7     7000.0     !USC Mech V2.0  (20 Torr RRKM WAN/FRE)
iC4H3+H=C2H2+H2CC                             2.40E+19   -1.6     2800.0     !USC Mech V2.0  (20 Torr RRKM WAN/FRE)
iC4H3+H=C4H4                                  4.20E+44  -10.3     7890.0     !USC Mech V2.0  (20 Torr RRKM WAN/FRE)
C4H4+H=nC4H5                                  4.20E+50  -12.3    12500.0     !USC Mech V2.0  (20 Torr RRKM WAN/FRE)
C4H4+H=iC4H5                                  9.60E+52  -12.8    14300.0     !USC Mech V2.0  (20 Torr RRKM WAN/FRE)
C4H4+H=nC4H3+H2                               6.65E+05    2.5    12240.0     !USC Mech V2.0  (97WAN/FRE)
C4H4+H=iC4H3+H2                               3.33E+05    2.5     9240.0     !USC Mech V2.0  (97WAN/FRE)
nC4H5+H=C4H4+H2                               1.50E+13    0.0        0.0     !USC Mech V2.0  (97WAN/FRE)
iC4H5+H=C4H4+H2                               3.00E+13    0.0        0.0     !USC Mech V2.0  (97WAN/FRE)
c-C4H5=C4H4+H                                 3.00E+12    0.0    52000.0     !USC Mech V2.0
C2H2+C2H2=C4H4                                3.00E+13     0.0    44455.0    !1988 Kiefer et al. fall-off /2
! 
!                    reactions of C4H2
C4H+H(+M) = C4H2(+M)                          1.00E+17   -1.0        0.0     !ABF
                                      LOW  / 3.750E+33   -4.8     1900.0   /
                                      TROE/  0.6464  132.00  1315.00 5566.0 /
C4H+H2=H+C4H2                                 4.90E+05    2.5      560.0     !Est. ref: C2H+H2=H+C2H2 (GRI)
C2H+C2H=C4H2                                  5.00E+13    0.0        0.0     !Est.
C4H2+H=C2H2+C2H                               6.06E+08    1.4    -3410.0     !Est. ref: C7H6+H=C2H2+C5H5 (2009 Cavallotti & Derud & Rota)
C3H2+CH=C4H2+H                                5.00E+13    0.0        0.0     !USC Mech V2.0
C4H2+H=nC4H3                                  1.70E+49  -11.7    12804.0     !USC Mech V2.0  (20 Torr RRKM WAN/FRE)
C4H2+H=iC4H3                                  4.30E+45  -10.2    13250.0     !USC Mech V2.0  (20 Torr RRKM WAN/FRE)
nC4H3=iC4H3                                   3.70E+61  -15.8    54890.0     !USC Mech V2.0  (20 Torr RRKM WAN/FRE)
nC4H3+H=iC4H3+H                               2.40E+11    0.8     2410.0     !USC Mech V2.0  (20 Torr RRKM WAN/FRE)
nC4H3+H=C2H2+H2CC                             1.60E+19   -1.6     2220.0     !USC Mech V2.0  (20 Torr RRKM WAN/FRE)
nC4H3+H=C4H2+H2                               3.00E+13    0.0        0.0     !USC Mech V2.0
iC4H3+H=C4H2+H2                               6.00E+13    0.0        0.0     !USC Mech V2.0
!
!                    reactions of C3H6 and C3H8
C2H3+CH3 (+M) = C3H6(+M)                      2.50E+13    0.0        0.0     !USC Mech V2.0  (86TSA/HAM)
                                       LOW  / 4.270E+58  -11.940    9769.80 /
                                       TROE / 0.175  1340.6 60000.0 10139.8 /
                                       H2/2/ H2O/6/ CH4/2/ CO/1.5/ CO2/2/ 
                                       C2H6/3/ AR/0.7/C2H2/3.00/ C2H4/3.00/
C2H5+CH3(+M) = C3H8(+M)                       4.90E+14   -0.5        0.0     !USC Mech V2.0  (88TSA)
                                       LOW  / 6.80E+61  -13.42    6000.0    /
                                       TROE / 1.000  1000.0  1433.9  5328.8 /
                                       H2/2/ H2O/6/ CH4/2/ CO/1.5/ 
                                       CO2/2/ C2H6/3/ AR/0.7/
aC3H5+H(+M) = C3H6(+M)                        2.00E+14    0.00       0.0     !USC Mech V2.0  (91TSA)
                                       LOW  / 1.33E+60 -12.00   5967.8      /
                                       TROE / 0.020  1096.6  1096.6  6859.5 /
                                       H2/2/ H2O/6/ CH4/2/ CO/1.5/ 
                                       CO2/2/ C2H6/3/ AR/0.7/
C3H6+H(+M) = nC3H7(+M)                        1.33E+13    0.00    3260.7     !USC Mech V2.0  (91TSA)
                                       LOW  / 6.26E+38   -6.66    7000.0    /
                                       TROE / 1.000  1000.0  1310.0 48097.0 /
                                       H2/2/ H2O/6/ CH4/2/ CO/1.5/ 
                                       CO2/2/ C2H6/3/ AR/0.7/
C3H6+H(+M) = iC3H7(+M)                        1.33E+13    0.00    1559.8     !USC Mech V2.0  (91TSA)
                                       LOW  / 8.70E+42   -7.50    4721.8    /
                                       TROE / 1.000  1000.0   645.4  6844.3 /
                                       H2/2/ H2O/6/ CH4/2/ CO/1.5/ 
                                       CO2/2/ C2H6/3/ AR/0.7/
iC3H7+H(+M) = C3H8(+M)                        2.40E+13    0.00       0.0     !USC Mech V2.0  (88TSA)
                                       LOW  / 1.70E+58 -12.08    11263.7    /
                                       TROE / 0.649  1213.1  1213.1 13369.7 /
                                       H2/2/ H2O/6/ CH4/2/ CO/1.5/ 
                                       CO2/2/ C2H6/3/ AR/0.7/
nC3H7+H(+M) = C3H8(+M)                        3.60E+13    0.00       0.0     !USC Mech V2.0  (88TSA)
                                       LOW  / 3.01E+48  -9.32     5833.6    /
                                       TROE / 0.498  1314.0  1314.0 50000.0 /
                                       H2/2/ H2O/6/ CH4/2/ CO/1.5/ 
                                       CO2/2/ C2H6/3/ AR/0.7/
C2H3+CH3=aC3H5+H                              1.50E+24   -2.8    18618.0     !USC Mech V2.0  (86TSA/HAM)
C2H4+CH3=nC3H7                                3.30E+11    0.0     7700.0     !USC Mech V2.0  (KP)
C2H5+C2H3 = aC3H5+CH3                         8.00E+25   -3.46   11775.0     !USC Mech V2.0  (86TSA/HAM RRKM 0.1 atm)
C3H6+H=C2H4+CH3                               8.80E+16   -1.1     6461.0     !USC Mech V2.0  (91TSA RRKM 0.1 atm)
C3H6+H=aC3H5+H2                               1.73E+05    2.5     2490.0     !USC Mech V2.0  (91TSA)
C3H6+H=CH3CCH2+H2                             4.00E+05    2.5     9790.0     !USC Mech V2.0  (91TSA)
C3H6+H=CH3CHCH+H2                             8.04E+05    2.5    12283.0     !USC Mech V2.0  (91TSA)
C3H6+CH3=aC3H5+CH4                            2.20E+00    3.5     5675.0     !USC Mech V2.0  (91TSA)
C3H6+CH3=CH3CCH2+CH4                          8.40E-01    3.5    11660.0     !USC Mech V2.0  (91TSA)
C3H6+CH3=CH3CHCH+CH4                          1.35E+00    3.5    12848.0     !USC Mech V2.0  (91TSA)
iC3H7+H=CH3+C2H5                              5.90E+23   -2.81   10009.0     !USC Mech V2.0  (88TSA RRKM 0.1 atm)
iC3H7+H=C3H6+H2                               3.20E+12    0.0        0.0     !USC Mech V2.0  (88TSA)
iC3H7+CH3=CH4+C3H6                            2.20E+14   -0.7        0.0     !USC Mech V2.0  (88TSA)
nC3H7+H=C2H5+CH3                              3.40E+18   -1.3     5386.0     !USC Mech V2.0  (91TSA RRKM 0.1 atm)
nC3H7+H=C3H6+H2                               1.80E+12    0.0        0.0     !USC Mech V2.0  (88TSA)
nC3H7+CH3=CH4+C3H6                            1.10E+13    0.0        0.0     !USC Mech V2.0  (88TSA)
C3H8+H=H2+nC3H7                               1.30E+06    2.5     6756.0     !USC Mech V2.0  (88TSA)
C3H8+H=H2+iC3H7                               1.30E+06    2.4     4471.0     !USC Mech V2.0  (88TSA)
C3H8+CH3=CH4+nC3H7                            9.03E-01    3.6     7153.0     !USC Mech V2.0  (88TSA)
C3H8+CH3=CH4+iC3H7                            1.51E+00    3.5     5480.0     !USC Mech V2.0  (88TSA)
!
!                    reactions of C3H4
C2H2+CH3=pC3H4+H                              4.50E+06    1.9    11600.0     !USC Mech V2.0  (99DAV/LAW RRKM 0.1 atm) 
C2H2+CH3=aC3H4+H                              2.40E+09    0.9    20700.0     !USC Mech V2.0  (99DAV/LAW RRKM 0.1 atm) 
C2H2+CH3=CH3CCH2                              6.80E+20   -4.2    18000.0     !USC Mech V2.0  (99DAV/LAW RRKM 0.1 atm) 
C2H2+CH3=CH3CHCH                              1.40E+32   -7.1    10000.0     !USC Mech V2.0  (99DAV/LAW RRKM 0.1 atm) 
C2H2+CH3=aC3H5                                8.20E+53  -13.3    33200.0     !USC Mech V2.0  (99DAV/LAW RRKM 0.1 atm)
C2H4+CH=aC3H4+H                               3.00E+13    0.0        0.0     !USC Mech V2.0
C2H4+CH=pC3H4+H                               3.00E+13    0.0        0.0     !USC Mech V2.0
C2H4+CH2=aC3H5+H                              2.00E+13    0.0     6000.0     !USC Mech V2.0
C2H4+CH2*=aC3H5+H                             5.00E+13    0.0        0.0     !USC Mech V2.0
C3H3+H=pC3H4                                  7.00E+11    0.0        0.0     !Est.
C3H3+H=aC3H4                                  1.50E+12    0.0        0.0     !Est.
aC3H4+M=C3H3+H+M                              2.00E+18    0.0    80000.0     !2006 BATTIN C3H4 MODEL
pC3H4=C2H+CH3                                 4.20E+15    0.0   125000.0     !2006 BATTIN C3H4 MODEL
aC3H4+H=C3H3+H2                               1.30E+06    2.0     5500.0     !USC Mech V2.0  (99DAV/LAW)
aC3H4+H=CH3CHCH                               1.10E+30   -6.5    15200.0     !USC Mech V2.0  (99DAV/LAW RRKM 0.1 atm)
aC3H4+H=CH3CCH2                               9.20E+38   -8.7     7000.0     !USC Mech V2.0  (99DAV/LAW RRKM 0.1 atm)
aC3H4+H=aC3H5                                 9.60E+61  -14.7    26000.0     !USC Mech V2.0  (99DAV/LAW RRKM 0.1 atm)
aC3H4+CH3=C3H3+CH4                            1.30E+12    0.0     7700.0     !USC Mech V2.0  (87WU/KER)
aC3H4+C2H=C2H2+C3H3                           1.00E+13    0.0        0.0     !USC Mech V2.0  (97WAN/FRE)
pC3H4=cC3H4                                   3.40E+46  -11.0    68900.0     !USC Mech V2.0  (99DAV/LAW RRKM 0.1 atm)
pC3H4=aC3H4                                   6.40E+61  -14.6    88200.0     !USC Mech V2.0  (99DAV/LAW RRKM 0.1 atm)
pC3H4+H=aC3H4+H                               2.30E+15   -0.3     7600.0     !USC Mech V2.0  (99DAV/LAW RRKM 0.1 atm)
pC3H4+H=CH3CCH2                               4.60E+44  -10.2    10200.0     !USC Mech V2.0  (99DAV/LAW RRKM 0.1 atm)
pC3H4+H=CH3CHCH                               1.00E+25   -5.0     1800.0     !USC Mech V2.0  (99DAV/LAW RRKM 0.1 atm)
pC3H4+H=aC3H5                                 1.10E+60  -14.6    28100.0     !USC Mech V2.0  (99DAV/LAW RRKM 0.1 atm)
pC3H4+H=C3H3+H2                               1.30E+06    2.0     5500.0     !USC Mech V2.0  (97WAN/FRE)
pC3H4+C3H3=aC3H4+C3H3                         6.14E+06    1.7    10450.0     !USC Mech V2.0
pC3H4+C2H=C2H2+C3H3                           1.00E+13    0.0        0.0     !USC Mech V2.0
pC3H4+CH3=C3H3+CH4                            1.80E+12    0.0     7700.0     !USC Mech V2.0  (87WU/KER)
cC3H4=aC3H4                                   2.30E+39   -8.8    47800.0     !USC Mech V2.0  (99DAV/LAW RRKM 0.1 atm)
aC3H5+H=aC3H4+H2                              1.80E+13    0.0        0.0     !USC Mech V2.0  (91TSA)
aC3H5+CH3=aC3H4+CH4                           3.00E+12   -0.3     -131.0     !USC Mech V2.0  (91TSA)
aC3H5=CH3CCH2                                 3.90E+59  -15.4    75400.0     !USC Mech V2.0  (99DAV/LAW RRKM 0.1 atm)
aC3H5=CH3CHCH                                 1.30E+55  -14.5    73800.0     !USC Mech V2.0  (99DAV/LAW RRKM 0.1 atm)
CH3CCH2=CH3CHCH                               1.60E+44  -12.2    52200.0     !USC Mech V2.0  (99DAV/LAW RRKM 0.1 atm)
CH3CCH2+H=pC3H4+H2                            3.34E+12    0.0        0.0     !USC Mech V2.0  (99DAV/LAW)
CH3CCH2+CH3=pC3H4+CH4                         1.00E+11    0.0        0.0     !USC Mech V2.0  (99DAV/LAW)
CH3CHCH+H=pC3H4+H2                            3.34E+12    0.0        0.0     !USC Mech V2.0
CH3CHCH+CH3=pC3H4+CH4                         1.00E+11    0.0        0.0     !USC Mech V2.0
!
!                    reactions of C3H2 and C3H3
CH3+C2H=C3H3+H                                2.41E+13    0.0        0.0     !USC Mech V2.0  (86TSA/HAM)
C2H2+CH2=C3H3+H                               1.20E+13    0.0     6620.0     !USC Mech V2.0  (88BOH/TEM; 86FRA/BHA)
C2H2+CH2*=C3H3+H                              2.00E+13    0.0        0.0     !USC Mech V2.0  (97WAN/FRE)
C2H2+CH=C3H2+H                                3.00E+13    0.0        0.0     !USC Mech V2.0
C3H2+H=C3H3                                   1.00E+13    0.0        0.0     !USC Mech V2.0
C3H3+H=C3H2+H2                                5.00E+13    0.0     1000.0     !USC Mech V2.0
!
!                    reactions of C2H4 and C2H6
CH3+CH3(+M) = C2H6(+M)                        2.12E+16   -0.97     620.0     !GRI
                                      LOW  /  1.77E+50   -9.67    6220.0  /
                                      TROE/  0.5325  151.0  1038.00  4970.0 /
                                      H2/2.0/ H2O/6.0/ CH4/2.0/ CO/1.5/ 
                                      CO2/2.0/ C2H6/3.0/ AR/0.7/
C2H3+H(+M) = C2H4(+M)                         6.08E+12    0.27     280.0     !GRI1.2
                                      LOW  /  1.40E+30   -3.86    3320.0 /
                                      TROE/  0.7820  207.50  2663.00  6095.00/
                                      H2/2.0/ H2O/6.0/ CH4/2.0/ CO/1.5/ CO2/2.0/ 
                                      C2H6/3.0/ AR/0.7/ C2H2/3.00/ C2H4/3.00/
C2H4(+M) = H2+H2CC(+M)                        8.00E+12    0.44   88770.0     !GRI
                                      LOW  /  7.000E+50   -9.310 99860.00   /
                                      TROE / 0.7345  180.0  1035.00  5417.0 /
                                      H2/2.0/ H2O/6.0/ CH4/2.0/ CO/1.5/ 
                                      CO2/2.0/ C2H6/3.0/ AR/0.7/
C2H4+H(+M) = C2H5(+M)                        1.367E+09    1.463   1355.00    !USC Mech V2.0  (04-MIL-KLI)
                                      LOW  /  2.027E+39   -6.642   5769.00  /
                                      TROE / -0.569  299.0  9147.0  -152.40 /
                                      H2/2.0/ H2O/6.0/ CH4/2.0/ CO/1.5/ 
                                      CO2/2.0/ C2H6/3.0/ AR/0.7/
C2H5+H(+M) = C2H6(+M)                         5.21E+17   -0.99    1580.0     !GRI
                                       LOW  / 1.99E+41   -7.08    6685.0   /
                                       TROE / 0.8422  125.0  2219.00 6882.0 /
                                       H2/2.0/ H2O/6.0/ CH4/2.0/ CO/1.5/
                                       CO2/2.0/ C2H6/3.0/ AR/0.7/
CH3+CH=C2H3+H                                 3.00E+13    0.0        0.0     !GRI
CH3+CH2=C2H4+H                                4.00E+13    0.0        0.0     !GRI
CH3+CH2*=C2H4+H                               1.20E+13    0.0     -570.0     !GRI
CH3+CH3=H+C2H5                                4.99E+12    0.1    10600.0     !GRI
CH4+CH=C2H4+H                                 6.00E+13    0.0        0.0     !GRI
C2H3+C2H3=C2H2+C2H4                           9.60E+11    0.0        0.0     !USC Mech V2.0  (NIST DB)
C2H4+H=C2H3+H2                                5.07E+07    1.9    12950.0     !USC Mech V2.0  (96KNY/BEN)
C2H4+CH2*=H2CC+CH4                            5.00E+13    0.0        0.0     !USC Mech V2.0
C2H4+CH3=C2H3+CH4                             2.27E+05    2.0     9200.0     !GRI
C2H5+H=C2H4+H2                                2.00E+12    0.0        0.0     !GRI
C2H6+H=C2H5+H2                                1.15E+08    1.9     7530.0     !GRI
C2H6+CH2*=C2H5+CH3                            4.00E+13    0.0     -550.0     !GRI
C2H6+CH3=C2H5+CH4                             6.14E+06    1.7    10450.0     !GRI
!
!                    reactions of C2H2
C2H+H(+M) = C2H2(+M)                         1.000E+17   -1.0        0.0     !GRI
                                      LOW  / 3.750E+33   -4.8     1900.0   /
                                      TROE/  0.6464  132.00  1315.00 5566.0 /     
C2H2 (+M) = H2CC (+M)                        8.000E+14   -0.520  50750.00    !USC Mech V2.0  (99LAS/WAN)
                                      LOW /   2.450E+15   -0.640  49700.00  /
                                      H2/2.0/ H2O/6.0/ CH4/2.0/ CO/1.5/ 
                                      CO2/2.0/ C2H6/3.0/C2H2/2.5/ C2H4/2.5/ 
C2H3 (+M) = C2H2+H (+M)                      3.860E+08    1.620  37048.2     !USC Mech V2.0  (96KNY/SLA)
                                      LOW  /  2.565E+27   -3.400  35798.72  /
                                      TROE/  1.9816  5383.7  4.2932 -0.0795 /
                                      H2/2.0/ H2O/6.0/ CH4/2.0/ CO/1.5/ CO2/2.0/
                                      C2H6/3.0/ AR/0.7/ C2H2/3.00/ C2H4/3.00/
C2H+H2=H+C2H2                                 4.90E+05    2.5      560.0     !GRI
CH3+C=C2H2+H                                  5.00E+13    0.0        0.0     !GRI
CH2+C=C2H+H                                   5.00E+13    0.0        0.0     !GRI
CH2+CH=C2H2+H                                 4.00E+13    0.0        0.0     !GRI
CH2+CH2=C2H2+H2                               3.20E+13    0.0        0.0     !GRI
CH4+C2H=C2H2+CH3                              1.81E+12    0.0      500.0     !USC Mech V2.0
H2CC+H=C2H2+H                                 1.00E+14    0.0        0.0     !USC Mech V2.0
C2H3+H=C2H2+H2                                9.00E+13    0.0        0.0     !USC Mech V2.0
C2H3+H=H2CC+H2                                6.00E+13    0.0        0.0     !USC Mech V2.0
C2H3+CH3=C2H2+CH4                             3.92E+11    0.0        0.0     !USC Mech V2.0
!
!                   reactions of C0 ~ C1
H+H+M = H2+M                                  1.78E+18   -1.0        0.0     !GRI3.0 * 1.78
                                      H2/0.0/ H2O/0.0/ CO2/0.0/ AR/0.63/ 
CH2+H(+M) = CH3(+M)                           2.50E+16   -0.8        0.0     !GRI
                                      LOW  / 3.200E+27   -3.14    1230.0  /
                                      TROE/  0.6800   78.00  1995.0  5590.0 /
                                      H2/2.0/ H2O/6.0/ CH4/2.0/ CO/1.5/ 
                                      CO2/2.0/ C2H6/3.0/ AR/0.7/
CH3+H(+M) = CH4(+M)                           1.27E+16   -0.63     383.0     !GRI
                                      LOW  /  2.477E+33   -4.760   2440.00  /
                                      TROE/  0.7830   74.00  2941.00  6964.0 /
                                      H2/2.0/ H2O/6.0/ CH4/2.0/ CO/1.5/ 
                                      CO2/2.0/ C2H6/3.0/ AR/0.7/
H+H+H2 = H2+H2                                9.00E+16   -0.6        0.0     !GRI3.0
CH+H=C+H2                                     1.10E+14    0.0        0.0     !GRI
CH+H2=CH2+H                                   1.11E+08    1.8     1670.0     !GRI

CH2+H2=H+CH3                                  5.00E+05    2.0     7230.0     !GRI
CH2*+AR=CH2+AR                                9.00E+12    0.0      600.0     !GRI
CH2*+H=CH+H2                                  3.00E+13    0.0        0.0     !GRI
CH2*+H2=CH3+H                                 7.00E+13    0.0        0.0     !GRI
CH4+H=CH3+H2                                  6.60E+08    1.6    10840.0     !GRI
CH4+CH2=CH3+CH3                               2.46E+06    2.0     8270.0     !GRI
CH4+CH2*=CH3+CH3                              1.60E+13    0.0     -570.0     !GRI
!
!                 reactions of C8H2 and C10H2
C8H+H(+M) = C8H2(+M)                         1.000E+17   -1.000     0.00     !Est. ref: C2H+H(+M) = C2H2(+M)(GRI)
                                      LOW  /  3.750E+33   -4.800  1900.00   /
                                      TROE/  0.6464  132.00  1315.00 5566.0 /
C10H+H(+M) = C10H2(+M)                         1.000E+17   -1.000     0.00   !Est. ref: C2H+H(+M) = C2H2(+M)(GRI)
                                      LOW  /  3.750E+33   -4.800  1900.00   /
                                      TROE/  0.6464  132.00  1315.00 5566.0 /
C8H+H2=H+C8H2                                 4.90E+05    2.5      560.0     !Est. ref: C2H+H2=H+C2H2 (GRI)
C10H+H2=H+C10H2                               4.90E+05    2.5      560.0     !Est. ref: C2H+H2=H+C2H2 (GRI)
C6H2+C2H=C8H2+H                               6.40E+13    0.0        0.0     !Est. ref: C2H2+C2H=C4H2+H (ABF) *2/3
C4H2+C4H=C8H2+H                               6.40E+13    0.0        0.0     !Est. ref: C2H2+C2H=C4H2+H (ABF) *2/3
C2H2+C6H=C8H2+H                               6.40E+13    0.0        0.0     !Est. ref: C2H2+C2H=C4H2+H (ABF) *2/3
C6H+C2H=C8H+H                                 6.40E+13    0.0        0.0     !Est. ref: C2H2+C2H=C4H2+H (ABF)
C4H+C4H=C8H+H                                 6.40E+13    0.0        0.0     !Est. ref: C2H2+C2H=C4H2+H (ABF) 
C6H+C2H=C8H2                                  5.00E+13    0.0        0.0     !Est. ref: C2H+C2H=C4H2
C4H+C4H=C8H2                                  5.00E+13    0.0        0.0     !Est. ref: C2H+C2H=C4H2
C8H2+C2H=C10H2+H                              6.40E+13    0.0        0.0     !Est. ref: C2H2+C2H=C4H2+H (ABF) *2/3
C6H2+C4H=C10H2+H                              6.40E+13    0.0        0.0     !Est. ref: C2H2+C2H=C4H2+H (ABF) *2/3
C4H2+C6H=C10H2+H                              6.40E+13    0.0        0.0     !Est. ref: C2H2+C2H=C4H2+H (ABF) *2/3
C2H2+C8H=C10H2+H                              6.40E+13    0.0        0.0     !Est. ref: C2H2+C2H=C4H2+H (ABF) *2/3
C8H+C2H=C10H+H                                6.40E+13    0.0        0.0     !Est. ref: C2H2+C2H=C4H2+H (ABF)
C6H+C4H=C10H+H                                6.40E+13    0.0        0.0     !Est. ref: C2H2+C2H=C4H2+H (ABF)
C8H+C2H=C10H2                                 5.00E+13    0.0        0.0     !Est. ref: C2H+C2H=C4H2
C6H+C4H=C10H2                                 5.00E+13    0.0        0.0     !Est. ref: C2H+C2H=C4H2
!
!                 reactions of C8
A1C2H- + H (+M) = A1C2H (+M)                  1.00E+14    0.0        0.0     !HACA
                                      LOW/ 6.6E+75  -16.30   7000. /
                                      TROE / 1.0 0.1 584.9 6113. /
                                      H2/2.0/ H2O/6.0/ CH4/2.0/ 
                                      CO/1.5/ CO2/2.0/ C2H6/3.0/
A1C2H* + H (+M) = A1C2H (+M)                  1.00E+14    0.0        0.0     !HACA
                                      LOW/ 6.6E+75  -16.30   7000. /
                                      TROE / 1.0 0.1 584.9 6113. /
                                      H2/2.0/ H2O/6.0/ CH4/2.0/ 
                                      CO/1.5/ CO2/2.0/ C2H6/3.0/
A1C2H3* + H (+M) = A1C2H3 (+M)                1.00E+14    0.0        0.0     !HACA
                                      LOW/ 6.6E+75  -16.30   7000. /
                                      TROE / 1.0 0.1 584.9 6113. /
                                      H2/2.0/ H2O/6.0/ CH4/2.0/ 
                                      CO/1.5/ CO2/2.0/ C2H6/3.0/
nC4H3+C4H2=A1C2H-                             2.30E+68  -17.6    24400.0     !HACA 20Torr
A1+C2H=A1C2H+H                                1.00E+13    0.0        0.0     !HACA
A1-+C2H2=n-A1C2H2                             7.70E+40   -9.2    13400.0     !HACA 20Torr
A1-+C2H2=A1C2H+H                              7.50E+26   -4.0    17100.0     !HACA 20Torr
A1C2H+H=n-A1C2H2                              1.00E+54  -12.8    17185.0     !HACA 20Torr
A1C2H+H=i-A1C2H2                              1.00E+54  -12.8    17185.0     !HACA 20Torr
A1C2H+H=A1C2H*+H2                             2.50E+14    0.0    16000.0     !HACA
A1C2H+H=A1C2H-+H2                             2.50E+14    0.0    16000.0     !HACA
A1+C2H3=A1C2H3+H                              7.90E+11    0.0     6400.0     !HACA (Stein)
A1-+C2H4=A1C2H3+H                             2.51E+12    0.0     6190.0     !HACA (Stein)
A1-+C2H3=A1C2H3                               1.90E+48  -10.5    17489.0     !HACA 20Torr
A1-+C2H3=i-A1C2H2+H                           1.80E+31   -4.6    31652.0     !HACA 20Torr
A1-+C2H3=n-A1C2H2+H                           1.50E+32   -4.9    35504.0     !HACA 20Torr
A1C2H3=i-A1C2H2+H                             1.20E+46   -9.1   118323.0     !HACA 20Torr
A1C2H3=n-A1C2H2+H                             1.90E+54  -11.4   130224.0     !HACA 20Torr
A1C2H3+H=A1C2H3*+H2                           2.50E+14    0.0    16000.0     !HACA (Kiefer)
n-A1C2H2+H=A1C2H+H2                           1.50E+13    0.0        0.0     !HACA
i-A1C2H2+H=A1C2H+H2                           3.00E+13    0.0        0.0     !HACA
n-A1C2H2+H=i-A1C2H2+H                         2.30E+37   -6.0    35164.0     !HACA
A1CH3+CH2=A1C2H3+H2                           3.00E+13    0.0        0.0     !Est.
A1CH2+CH2=A1C2H3+H                            1.00E+13    0.0        0.0     !Est.
A1CH2+CH3=A1C2H5                              2.00E+13    0.0        0.0     !Est.
A1C2H5=A1C2H4*+H                              2.51E15     0.0    81262.0     !1988 Tro and Mar
A1C2H4*=A1C2H3+H                              3.16E+13    0.0    50669.0     !1988 Tro and Mar
A1-+C4H4=A1C2H3+C2H                           3.20E+11    0.0     1900.0     !MIT 1988 Harris et al.
A1-+C4H6=A1C2H3+C2H3                          3.20E+11    0.0     1900.0     !MIT 1988 Harris et al.
C4H4+C4H4=A1C2H3                              1.50E+14    0.0    38000.0     !MIT 1984 Lundgard and Heicklen
A1C2H5+H=A1+C2H5                              1.20E+13    0.0     5100.0     !MIT 1995 Zhang and McKinnon
A1C2H5+H=A1C2H3+H2+H                          8.00E+13    0.0     8235.0     !MIT 1992 Emdee et al.
A1C2H5=A1C2H3+H2                              5.01E+12    0.0    64000.0     !MIT 1970 Clark and Price
A1-+C2H6=A1C2H5+H                             2.51E+12    0.0     6190.0     !Est. ref: A1-+C2H4=A1C2H3+H (ABF)
nC4H5+C4H4=A1C2H3+H                           3.16E+11    0.0      600.0     !USC Mech V2.0  (84COL/BIT)
!
!                        reactions of C9
C7H6+C2H2=C9H8                                1.44+292  -78.2   245010.0     !2009 da Silva & Bozzelli (C7H6+C2H2)   
C7H6+C2H2=C9H7+H                              9.70E-42   16.7    37520.0     !2009 da Silva & Bozzelli (C7H6+C2H2)     
A1CH2+C2H2=C9H8+H                             3.16E+04    2.5    11061.2     !2009 Blanquart
A1-+aC3H4=C9H8+H                              5.13E+02    3.2     2788.0     !2003 Vereecken & Berringer & Peerers
A1-+C3H3=C9H8                                 1.50E+75  -17.8    39600.0     !Est. ref: A1-+C4H3=A2 (MIT)
A1+C3H3=C9H8+H                                6.26E+09    2.61   56500.0     !Est.
C9H8=C9H7+H                                   1.73E+68  -15.2   116371.9     !2009 Blanquart
C9H7+C3H3=A2R5+H2                             4.10E+43   -9.2    15153.0     !2009 Blanquart
C9H7+C3H2=A2R5+H                              1E13        0.0        0.0     !Est.
!C9H7+C5H5=A3+2H                              5.00E+12    0.0     8000.0     !MIT 1997 0.5JMarinov et al
C9H7+C5H5=>A3+2H                              6.390e+29   -4.030  35205.54   !2009 Blanquart

!
!                     reactions of C10H6
A1C2H*+C2H=A1C2H)2                            5.00E+13    0.0        0.0     !ABF
A1C2H*+C2H2=naphthyne+H                       2.30E+58  -12.9    44600.0     !HACA 20Torr
A1C2H)2+H=naphthyne+H                         3.90E+74  -16.9    53700.0     !HACA 20Torr
naphthyne+H=A2-1                              3.30E+65  -16.8    37400.0     !HACA 20Torr
A1C2H+C2H=A1C2H)2+H                           5.00E+13    0.0        0.0     !HACA
!
!                 reactions of C10H7 ~ C10H10
A2-1 + H (+M) = A2 (+M)                       1.00E+14    0.0        0.0     !HACA
                                      LOW  /  3.80E+127 -31.434  18676.0 /
                                      TROE / 0.200   122.8   478.4  5411.9 /
                                      H2/2.0/ H2O/6.0/ CH4/2.0/ 
                                      CO/1.5/ CO2/2.0/ C2H6/3.0/
A2-2 + H (+M) = A2 (+M)                       1.00E+14    0.0        0.0     !HACA
                                      LOW  /  9.50E+129 -32.132  18782.0  /
                                      TROE / 0.870   492.7   117.9  5652.0 /
                                      H2/2.0/ H2O/6.0/ CH4/2.0/ 
                                      CO/1.5/ CO2/2.0/ C2H6/3.0/
A1C2H*+C2H2=A1C2HC2H2                         3.90E+48  -11.3    27200.0     !HACA 20Torr
A1C2H*+C2H2=A2-1                              5.20E+72  -18.1    33900.0     !HACA 20Torr
A1C2H*+C2H2=A1C2H)2+H                         5.50E+32   -5.5    27600.0     !HACA 20Torr
A1C2H)2+H=A1C2HC2H2                           3.00E+48  -10.9    20500.0     !HACA 20Torr
A1C2H)2+H=A2-1                                2.00E+82  -20.2    36900.0     !HACA 20Torr
A1C2H3*+C2H2=A2+H                             2.10E+15   -1.1     6000.0     !HACA 20Torr
n-A1C2H2+C2H2=A2+H                            2.10E+15   -1.1     4800.0     !HACA 20Torr
A2+H=A2-1+H2                                  2.50E+14    0.0    16000.0     !HACA (Kiefea)
A2+H=A2-2+H2                                  2.50E+14    0.0    16000.0     !HACA (Kiefea)
A2-1+H=A2-2+H                                 8.80E+58  -11.7    60974.0     !HACA 20Torr
A1-+C4H4=A2+H                                 3.30E+33   -5.7    25500.0     !HACA
A1CH2+C3H3=A2+2H                              2.00E+14    0.0    20000.0     !Est
C5H5+C5H5=A2+2H                               6.39E+29   -4.03   35205.5     !2009 Blanquart
A1-+nC4H3=A2                                  1.51E+75  -17.9    39600.0     !MIT [QRRK-HR, 20 torr]
A1-+nC4H3=A2-2+H                              1.84E+72  -16.1    57630.0     !MIT [QRRK-HR, 20 torr]
A1-+nC4H3=A2-1+H                              1.84E+72  -16.1    57630.0     !MIT [QRRK-HR, 20 torr]
A1CH2+C3H3=C10H10                             1.51E+75  -17.9    39600.0     !Est. ref: A1-+C4H3=A2 (MIT)
A1CH3+C3H2=C10H10                             1.51E+75  -17.9    39600.0     !Est. ref: A1-+C4H3=A2 (MIT)
C10H9+H=C10H10                                1.00E+13    0.0        0.0     !Est.
C10H10+H=C10H9+H2                             1.00E+13    0.0        0.0     !Est.
C10H9+H=A2+H2                                 1.00E+13    0.0        0.0     !Est.
!
!                       reactions of C12
A2C2HB* + H (+M) = A2C2HB (+M)                1.00E+14    0.0        0.0     !HACA
                                     LOW  /  3.80E+127 -31.434 18676.0 /
                                     TROE / 0.200   122.8   478.4  5411.9 /
                                     H2/2.0/ H2O/6.0/ CH4/2.0/ 
                                      CO/1.5/ CO2/2.0/ C2H6/3.0/
A2C2HA* + H (+M) = A2C2HA (+M)                1.00E+14    0.0        0.0     !HACA
                                     LOW  /  9.50E+129 -32.132  18782.0  /
                                     TROE / 0.870   492.7   117.9  5652.0 /
                                     H2/2.0/ H2O/6.0/ CH4/2.0/ 
                                     CO/1.5/ CO2/2.0/ C2H6/3.0/
A2R5- +H (+M) = A2R5 (+M)                     1.00E+14    0.0        0.0     !HACA
                                     LOW/ 6.6E+75  -16.30  7000.  /
                                     TROE / 1.0 0.1 584.9  6113.  /
                                     H2/2.0/ H2O/6.0/ CH4/2.0/ 
                                     CO/1.5/ CO2/2.0/ C2H6/3.0/
A2+C2H=A2C2HA+H                               5.00E+13    0.0        0.0     !HACA
A2+C2H=A2C2HB+H                               5.00E+13    0.0        0.0     !HACA
A2-1+C2H2=A2C2H2                              4.50E+39   -8.7    14300.0     !HACA 20Torr
A2-1+C2H2=A2C2HA+H                            1.40E+22   -2.6    17400.0     !HACA 20Torr
A2-1+C2H2=A2R5+H                              8.20E+30   -5.4    16900.0     !HACA 20Torr
A2C2HA+H=A2C2H2                               1.90E+50  -11.6    16200.0     !HACA 20Torr
A2C2HA+H=A2R5+H                               1.90E+38   -7.4    18200.0     !HACA 20Torr
A2C2H2=A2R5+H                                 1.56E+46  -10.3    41300.0     !HACA
A2C2H2+H=A2C2HA+H2                            1.50E+13    0.0        0.0     !HACA
A2C2HA+H=A2C2HA*+H2                           2.50E+14    0.0    16000.0     !HACA (Kiefer)
A2C2HB+H=A2C2HB*+H2                           2.50E+14    0.0    16000.0     !HACA (Kiefer)
A2R5+H=A2R5-+H2                               2.50E+14    0.0    16000.0     !HACA
o-C6H4+o-C6H4=BIPHEN                          4.60E+12    0.0        0.0     !MIT 1968 Porter and Steinfeld 
P2-=BIPHEN+H                                  1.30E+16    0.0    33203.0     !MIT Mebel et al. 1997 for C6H7=C6H6+H
P2-+H=BIPHEN+H2                               6.02E+12    0.0        0.0     !MIT Mebel et al. 1997 for C6H7+H=C6H6+H2
A1-+A1-=BIPHEN+H2                             5.60E+12   -0.074   7550.0     !Est. ref: A1+A1-=P2 + H (ABF 20Torr)
A1-+C3H3=A1C3H2+H                             3.00E+12    0.0        0.0     !MIT 1998 D'Anna and Violi
A1C3H2+C3H3=P2-+H                             3.00E+12    0.0        0.0     !MIT 1998 D'Anna and Violi
A1-+A1-=P2                                    1.14E+13    0.0        0.0     !1996 Heckmann & Hippler & Troe  
A1+A1-=P2+H                                   5.60E+12   -0.1     7550.0     !HACA 20Torr
A1+A1-=P2-H                                   8.10E+36   -8.6     9125.0     !HACA 20Torr
P2-H=P2+H                                     6.10E+42  -10.1    27460.0     !HACA 20Torr
A1-+A1-=P2-+H                                 7.00E+23   -2.3    38540.0     !HACA 20Torr
P2=P2-+H                                      9.00E+37   -6.6   119580.0     !HACA 20Torr
P2+H=P2-+H2                                   2.50E+14    0.0    16000.0     !HACA (Kiefea)
P2-+C2H2=A3+H                                 4.60E+06    2.0     7300.0     !HACA 

!
!                     reactions of C13
A1-+A1CH2=C13H12                              6.00E+13    0.0      220.0     !MIT 1994b Yu and Lin  /2
C13H12+H=BENZYLBJ+H2                          3.23E+09    2.1    15842.0     !MIT Mebel et al.
BENZYLBJ+H=C13H12                             1.00E+13    0.0        0.0     !Est.
C13H10+H=BENZYLBJ                             3.20E+51  -12.6    13500.0     !Est. ref: A1+H= c-C6H7 (ABF)
BENZYLBJ+H=C13H10+H2                          1.00E+13    0.0        0.0     !Est.
C13H10+H=C13H9+H2                             1.00E+13    0.0        0.0     !Est.
!
!                     reactions of C14
A3-1 + H (+M) = A3 (+M)                       1.00E+14    0.0        0.0     !HACA
                                     LOW  / 4.0E+148 -37.505 20551.0 /
                                     TROE / 1.000   536.3   144.9  5632.8 /
                                     H2/2.0/ H2O/6.0/ CH4/2.0/ 
                                     CO/1.5/ CO2/2.0/ C2H6/3.0/
A3-4 + H (+M) = A3 (+M)                       1.00E+14    0.0        0.0     !HACA
                                     LOW  /2.1E+139  -34.803 18378.0 /
                                     TROE / 0.001   171.4   171.4  4992.8 /
                                     H2/2.0/ H2O/6.0/ CH4/2.0/ 
                                     CO/1.5/ CO2/2.0/ C2H6/3.0/
A2C2HB*+C2H2=A3-1                             5.20E+72  -18.1    33900.0     !HACA 20Torr
A2C2HB*+C2H2=A2C2H)2+H                        5.50E+32   -5.5    27600.0     !HACA 20Torr
A2C2H)2+H=A3-1                                2.00E+82  -20.2    36900.0     !HACA 20Torr
A2C2HA*+C2H2=A3-4                             5.20E+72  -18.1    33900.0     !HACA 20Torr
A2C2HA*+C2H2=A2C2H)2+H                        5.50E+32   -5.5    27600.0     !HACA 20Torr
A2C2H)2+H=A3-4                                2.00E+82  -20.2    36900.0     !HACA 20Torr
A2C2HA+C2H=A2C2H)2+H                          5.00E+13    0.0        0.0     !HACA
A2C2HB+C2H=A2C2H)2+H                          5.00E+13    0.0        0.0     !HACA
A3+H=A3-1+H2                                  2.50E+14    0.0    16000.0     !HACA (Kiefer)
A3+H=A3-4+H2                                  2.50E+14    0.0    16000.0     !HACA (Kiefer)
A3-1+H=A3-4+H                                 1.70E+72  -15.2    77175.0     !HACA 20Torr
A2-1+C4H4=A3+H                                3.30E+33   -5.7    25500.0     !HACA
A2-2+C4H4=A3+H                                3.30E+33   -5.7    25500.0     !HACA
A2R5-+C2H2=A3-4                               2.00E+13    0.0    55000.0     !HACA (Nigel Moriaty)
A1C2H*+A1=A3+H                                1.10E+23   -2.9    15890.0     !HACA
A1-+A1C2H=A3+H                                1.10E+23   -2.9    15890.0     !HACA
A1CH2+A1CH2=>C14H14                           5.01E+12    0.0      454.0     !1990 Hippler and Tore
C14H14=>A1CH2+A1CH2                           1.40E+13    0.0    59751.0     !Est.
C14H14=C14H12+H2                              1.50E+15    0.0    84700.0     !Est. ref: C4H6 = C4H4+H2 (96HID/HIG) 
C14H12=A3+H2                                  1.50E+15    0.0    84700.0     !Est. ref: C4H6 = C4H4+H2 (96HID/HIG)
A3L=>A3                                       7.94E+12    0.0     65000      !1994 Colket and Seery
A3=>A3L                                       5.37E+12    0.0     67000      !1994 Colket and Seery
!
!              reactions of C15 and C16
A3+C2H=A3C2H+H                                5.00E+13    0.0        0.0     !HACA
A3-4+C2H2=A3C2H2                              6.70E+45  -10.6    21200.0     !HACA 20Torr
A3-4+C2H2=A3C2H+H                             8.00E+17   -1.2    22600.0     !HACA 20Torr
A3-4+C2H2=A4+H                                4.00E+23   -3.2    14400.0     !HACA 20Torr
A3C2H+H=A3C2H2                                5.20E+47  -11.1    14700.0     !HACA 20Torr
A3C2H+H=A4+H                                  6.80E+26   -4.1     9500.0     !HACA 20Torr
A3C2H2=A4+H                                   7.30E+48  -11.9    28100.0     !HACA 20Torr
A4+H=A4-+H2                                   2.50E+14    0.0    16000.0     !HACA (Kiefer)
A4-+H=A4                                      1.00E+14    0.0        0.0     !HACA (kinf)
A3+C2H=A4+H                                   1.00E+13    0.0        0.0     !HACA
A2R5-+C2H2=A2R5R5+H                           8.20E+30   -5.4    16900.0     !Est. ref: A2-1+C2H2=A2R5+H (ABF 20Torr)
A2R5+C2H=A2R5R5+H                             8.20E+30   -5.4    16900.0     !Est. ref: A2-1+C2H2=A2R5+H (ABF 20Torr)
END

USC Mech V2.0                         H. Wang, X. You, A.V. Joshi, S.G. Davis, A. Laskin, F. Egolfopoulos, C.K. Law, 
                                      High-Temperature Combustion Reaction Model of H2/CO/C1-C4 Compounds,
                                      http://ignis.usc.edu/USC_Mech_II.htm (2007).
GRI                                   D.M.G. Gregory P. Smith, Michael Frenklach, Nigel W. Moriarty, Boris Eiteneer, 
                                      Mikhail Goldenberg, C. Thomas Bowman, Ronald K. Hanson, Soonho Song, William C. 
                                      Gardiner, Jr., Vitali V. Lissianski, and Zhiwei Qin, 
                                      http://www.me.berkeley.edu/gri_mech/ (1999).
HACA                                  H. Wang, M. Frenklach, J. Phys. Chem. 98 (1994) 11465-11489.
ABF                                   J. Appel, H. Bockhorn, M. Frenklach, Combust. Flame 121 (2000) 122-136.
MIT                                   H. Richter, S. Granata, W.H. Green, J.B. Howard, Proc. Combust. Inst. 30 (2004) 1397-1405.
2009 Blanquart et al.                 G. Blanquart, P. Pepiot-Desjardins, H. Pitsch, Combust. Flame 156 (2009) 588-607.
2009 Ergut                            A. Ergut, R.J. Therrien, Y.A. Levendis, H. Richter, J.B. Howard, J.B. Carlson, 
                                      Combustion and Flame 156 (2009) 1014-1022.
2009 da Silva & Bozzelli              G. da Silva, J.A. Cole, J.W. Bozzelli, J. Phys. Chem. A 113 (2009) 6111-6120.
2009 da Silva & Bozzelli (C7H6+C2H2)  G. da Silva, J.W. Bozzelli, J. Phys. Chem. A 113 (2009) 8971-8978.
2009 Cavallotti & Derud & Rota        R.A. Eng, A. Gebert, E. Goos, H. Hippler, C. Kachiani, Phys. Chem. Chem. Phys. 4 (2002) 3989-3996.
2008 Andrae                           J.C.G. Andrae, T. Brinck, G.T. Kalghatgi, Combust. Flame 155 (2008) 696-712.
2007 Oehlschlaeger MA.                M.A. Oehlschlaeger, D.F. Davidson, R.K. Hanson, Proc. Combust. Inst. 31 (2007) 211-219.
2007 Klippenstein                     S.J. Klippenstein, L.B. Harding, Y. Georgievskii, Proc. Combust. Inst. 31 (2007) 221-229.
2006 Oehlschlaeger MA.                M.A. Oehlschlaeger, D.F. Davidson, R.K. Hanson, J. Phys. Chem. A 110 (2006) 9867-9873.
2006 Brezinsky                        R. Sivaramakrishnan, R.S. Tranter, K. Brezinsky, J. Phys. Chem. A 110 (2006) 9400-9404.
2005 Oehlschlaeger MA.                M.A. Oehlschlaeger, D.F. Davidson, R.K. Hanson, J. Phys. Chem. A 110 (2005) 6649-6653.
2005 combustion DATA                  D.L. Baulch, C.T. Bowman, C.J. Cobos, R.A. Cox, T. Just, J.A. Kerr, M.J. Pilling, D. Stocker, 
                                      J. Troe, W. Tsang, R.W. Walker, J. Warnatz, J. Phys. Chem. Ref. Data 34 (2005) 757-1397.
2005 Bounaceur                        R. Bounaceur, I. Da Costa, R. Fournet, F. Billaud, F. Battin-Leclerc, Int. J. Chem. Kinet. 37 (2005) 25-49.
2003 Vereecken & Berringer & Peerers  L. Vereecken, J. Peeters, Phys. Chem. Chem. Phys. 5 (2003) 2807-2817.
2003 Miller                           J.A. Miller, S.J. Klippenstein, J. Phys. Chem. A 107 (2003) 7783-7799.
2002 D'Anna & Kent                    A. D'Anna, J.H. Kent, Combust. Flame 132 (2002) 715-722.
2002 Knyazev & slagle                 V.D. Knyazev, I.R. Slagle, J. Phys. Chem. A 106 (2002) 5613-5617.      
2002 Hippler                          R.A. Eng, A. Gebert, E. Goos, H. Hippler, C. Kachiani, Phys. Chem. Chem. Phys. 4 (2002) 3989-3996.
2001 Mac & Bac                        G.B. Bacskay, J.C. Mackie, Phys. Chem. Chem. Phys. 3 (2001) 2467-2473.
2001 D'Anna & Kent                    A. D'Anna, A. D'Alessio, J. Kent, Combust. Flame 125 (2001) 1196-1206.
2000 Alzueta                          M.U. Alzueta, P. Glarborg, K. Dam-Johansen, Int. J. Chem. Kinet. 32 (2000) 498-522.                       
1998 Kern                             R.D. Kern, Q. Zhang, J. Yao, B.S. Jursic, R.S. Tranter, M.A. Greybill,
                                      J.H. Kiefer, Proc. Combust. Inst. 27 (1998) 143-150.
1997 MEB-LIN                          
1996 Heckmann & Hippler & Troe        E. Heckmann, H. Hippler, J. Troe, Proc. Combust. Inst. 26 (1996) 543-550.
1990 Hippler and Tore                 H. Hippler, J. Troe, J. Phys. Chem. 94 (1990) 3803-3806.
1988 Tro and Mar                      W. Muller-Markgraf, J. Troe, J. Phys. Chem. 92 (1988) 4899-4905.
1987 WU/KER6291                       C.H. Wu, R.D. Kern, J. Phys. Chem. 91 (1987) 6291-6296.
