ELEMENTS
C H N O AR 
HE 
END
SPECIES
H H2 O O2 OH 
H2O N2 HO2 H2O2 CO 
CO2 CH2O HCO HO2CHO HCOOH 
OCHO HOCH2O CH4 CH3 CH2 
C2H2  CH3CHO CH2CO HCCO 
CH3O C2H3 C2H4 C2H6 CH3CO
C2H5 C3H4 C3H5 C3H6 C3H7 C3H5O  C2H3CHO  C2H3CO  CH2CHO
CH2OH CH3OH 
HE AR
!C12
NC12H26    C12H25     C12H25O2   C12H24OOH  C12H24     C12H24OOHO2    NC12ket  C12H24O  NC8H17CHO  NC8H17CO  NC5H11CO  C2H5CO

XC12H26	IC12H25	IC12H25O2	IC12OOH		IC12KET 
IC12HOOHO2 IC12H24	C10H21CO
j-C8H16 IC4H8 IC4H7 IC4H7O

END
REACTIONS MOLES CAL/MOLE

! N-C12H26 reactions!!Chang et al. C5-C20

NC12H26+H=C12H25+H2                            3.55E+07  2.400  4.471e+03 !
NC12H26+OH=C12H25+H2O                          2.67E+10  0.935  5.047e+02 
NC12H26+O=C12H25+OH                            2.12E+13  0.000  5.200e+03 
NC12H26+HO2=C12H25+H2O2                        7.00E+02  3.400  1.372e+04 !
NC12H26+O2=C12H25+HO2                          2.37E+15  0.000  5.016e+04 
C12H25+O2=C12H25O2                             2.78E+15 -0.816 -5.365e+02 
C12H25O2=C12H24OOH                             2.66E+11  0.200  1.850e+04 !
C12H25O2=C12H24+HO2                            1.58E+10  1.010  2.936e+04 ! 
C12H24+OH=>C3H5+C2H3+C2H4+C2H5+C3H6+H2O        1.07E+04  2.640 -1.919e+03 !
C12H24OOH+O2=C12H24OOHO2                       5.54E+14 -0.816 -5.365e+02 !
C12H24OOHO2=NC12ket+OH                         6.42E+01  3.100  1.750e+04 !
C12H24OOH=C12H24O+OH                           6.50E+08  0.725  1.490e+04
C12H24O+OH=>C3H6+NC8H17CO+H2O                  3.10E+07  1.628 -4.930e+02 
NC12H26=>C3H7+C3H6+2C2H4+C2H5                  6.11E+27 -2.70   8.691e+04 !
NC12ket=>NC8H17CHO+CH2CO+CH3+OH                9.82E+52 -11.57  5.483e+04 !
C12H25=>3C2H4+C3H6+C3H7                        9.19E+27	-4.59	3.619E+04   !
NC8H17CHO+OH<=>NC8H17CO+H2O                    4.24E+10  0.900 -3.500E+01  
NC8H17CO+O2=>C2H4+NC5H11CO+H2O+CO              5.78E+14  0.000  1.684E+04
NC5H11CO+O2=>C2H4+C2H5CO+H2O+CO                5.78E+14  0.000  1.684E+04 
C2H5+CO<=>C2H5CO                        1.51e+11  0.000  4.810E+03         

!!!!!!!!!!!!!!!!!!!!!!!!!!!!!!!!!!!IC12H26!!!!!!!!!!!!!!!!!!!!!!!!!!!!!!!!!!!!!!!!!!!Liu et al. RP-3
!XC12H26 + O2  => IC12H25 + HO2                        		1.700E+10  0.00  20800.0
XC12H26 + O2  <=> IC12H25 + HO2                        		1.17E+14	 0.0	4.94E+04
XC12H26 + OH <=> IC12H25 + H2O			                      3.85E+07	1.0	  3.12E+02
XC12H26 + H <=> IC12H25 + H2                          		3.30E+06   2.49  4124.0
!XC12H26 + HO2 <=> IC12H25 + H2O2                      		8.850E+04  2.60  13910.0
XC12H26 + HO2 <=> IC12H25 + H2O2                      		9.87E+15	0.0	2.05E+04 !
IC12H25 +O2 <=> IC12H25O2                             		2.00E+11  0.00      0.0 !
REV                                               / 5.510E+13  0.00  27400.0 /
IC12H25O2 <=> IC12OOH				1.510E+11  0.00  19000.0 
REV                                               / 1.000E+11  0.00  11000.0 /
IC12OOH + O2 <=> IC12HOOHO2                           		2.00E+11  0.00      0.0   !
REV                                               / 5.510E+13  0.00  27400.0 /
IC12HOOHO2 <=> IC12KET + OH                           		8.910E+10  0.00  17000.0  !
IC12KET =>  OH+CH2O+C10H21CO  		                 3.5e+15   0.00  42000.0   !
C10H21CO+   O2 => C3H7+C3H5+C2H3+C2H5+HO2+CO	   	3.500E+12  0.00  10000.0
XC12H26=>2IC4H8+C3H6+CH3+H                     9.81E+44	-8.48	  8.50E+04 !
IC12H25=>IC4H8+H+j-C8H16                       1.42E+15  -0.14  27900.0  !
IC12H25=>2IC4H8+C3H6+CH3                       2.92E+09   1.47  27000.0  !
j-C8H16+OH=>IC4H8+C3H4+CH3+H2O               2.40E+13   0.00   3900.0  !
IC4H8=IC4H7+H                                  1.07E+56 -11.49   114000  !
IC4H8+H=IC4H7+H2                               1.40E+05   2.50   2490.0  !
IC4H8+OH=IC4H7+H2O                             3.20E+06   1.80   -298.0  !
IC4H7+HO2=IC4H7O+OH                            5.00E+14   0.00    -1000  !
IC4H7=C3H4+CH3                               8.23E+47  -9.74    74300  !
IC4H7O=C3H5+CH2O                             1.01E+18  -1.45    30800  !
C3H4+O=HCCO+CH3    7.3E14 0.0 2.25E3
C3H4+H=C3H5   1.0E34 -6.88 8.9E3
C3H4+OH=C2H3+CH2O    1.0E12 0.0 0.0E0
C3H4+OH=C2H4+HCO    1.0E12 0.0 0.0E0

!*************************************C2/C3*********************************************!!Chang et al. pentanol
CH3+C2H4<=>C3H7 1.760E+04 2.48 6.130E+03
H+C3H6<=>C3H7 5.500E+11 0.51 2.620E+03
C3H6+OH<=>C3H5+H2O 1.97E+06 2.2 5.40E+02
C3H6+H<=>C3H5+H2 8.730e+04 2.500 2.492e+03
C3H6+H<=>C2H4+CH3 8.30E+25 -3.04 15610.0
C3H6+O<=>C2H5+HCO 5.580e+08 1.760 -1.216e+03
C3H5+HO2<=>C3H5O+OH 7.000e+12 0.000 -1.000e+03
C2H2+CH3<=>C3H5  2.40E+38 -8.21 17100.0

C3H5 +H(+M)<=>C3H6(+M) 2.00E+14 0.0 0.0
low/ 1.33e+60 -12.00 5967.8/ 
troe/ 0.020 1096.6 1096.6 6859.5/ 
H2/ 2/ H2O/ 6/ CH4/ 2/ CO/ 1.5/ CO2/ 2/ C2H6/ 3/ AR/ 0.7/ 
C3H5O<=>C2H3CHO+H 1.000e+14 0.000 2.910e+04
C2H3+CH2O<=>C3H5O 1.500e+11 0.000 1.060e+04
C2H3CHO+HO2<=>C2H3CO+H2O2 3.010e+12 0.000 1.192e+04
C2H3CHO+H<=>C2H3CO+H2 1.340e+13 0.000 3.300e+03
C2H3CHO+OH<=>C2H3CO+H2O 9.240e+06 1.500 -9.620e+02
C2H3+CO<=>C2H3CO 1.510e+11 0.000 4.810e+03
C2H4+H(+M)<=>C2H5(+M) 5.27E+09 1.183 1272.7
low/ 2.027E+40 -6.642E+00 5.769E+03/ 
troe/ 9.76E-01 9.99E+09 3.84E+02 3.29E+09/ 
H2/ 2.0/ H2O/ 6.0/ CH4/ 2.0/ CO/ 1.5/ CO2/ 2.0/ C2H6/ 3.0/ AR/ 0.7/ 
C2H5+O2<=>C2H4+HO2 1.705E+45 -11.49 1.459E+04
C2H5+HO2<=>CH3+CH2O+OH 1.100e+13 0.000 0.000e+00
C2H4+OH<=>C2H3+H2O 2.23e+4 2.745 2.2155e+3
C2H4+O<=>CH3+HCO 6.775e+06 1.880 1.830e+02
C2H4+O<=>CH2CHO+H 6.775e+05 1.880 1.830e+02
C2H3    +O2    <=>CH2O     +HCO           1.700e+029  -5.312     6503.1
C2H3    +O2     =>H        +CO  +CH2O     5.190e+015  -1.260     3312.6
C2H3+O2<=>CH2CHO+O 7.00E+14 -0.611 5262.43
CH2CHO(+M)<=>CH2CO+H(+M) 1.43E+15 -1.50E-01 4.56E+04
low/ 6.00E+29 -3.8 43423.898/ 
troe/ 9.85E-01 3.93E+02 9.80E+09 5.00E+09/ 
CH2CHO(+m)<=>CH3+CO(+m) 2.93E+12 2.90E-01 4.03E+04
low/ 9.52E+33 -5.07E+00 4.13E+04/ 
troe/ 7.13E-17 1.15E+03 4.99E+09 1.79E+09/ 
CH3CO(+M)<=>CH2CO+H(+M) 9.41300E+07 1.91660E+00 4.49872E+04
low/ 1.51600E+51 -1.02700E+01 5.53900E+04/ 
troe/ 6.008840E-01 8.103411E+09 6.676688E+02 5.000000E+09/ 
C2H3+H<=>C2H2+H2 3.0e+14 0.00 0.000e+00
C2H2    +H(+M) <=>C2H3(+M)                 3.110e+11    0.58  2.589e+03
 low                                 /  2.254e+40  -7.269     6577.     /
 troe/ 1.0 1.e-15 675. 1.e+15/
 H2/2/ H2O/5/ CO/2/ CO2/3/
C2H2+O<=>HCCO+H 2.958E+08 1.28 2.472E+03
C2H2+O<=>CH2+CO 7.395E+08 1.28 2.472E+03
CH3+CH3(+M)<=>C2H6(+M) 2.277e+15 -0.69 1.7486e+02
low/ 8.054e+31 -3.75 9.816e+02/ 
troe/ 0.0 570.0 1.e+30 1.e+30/ 
H2O/ 5/ CO/ 2/ CO2/ 3/ 
C2H5+H(+M)<=>C2H6(+M) 5.210e+17 -0.990 1.580e+03
low/ 1.9900e+41 -7.0800e+00 6.6850e+03/ 
troe/ 8.4200e-01 1.2500e+02 2.2190e+03 6.8820e+03/ 
H2/ 2/ H2O/ 6/ AR/ .7/ CO/ 1.5/ CO2/ 2/ CH4/ 2/ C2H6/ 3/ HE/ .7/ 
C2H6+H<=>C2H5+H2 1.150e+08 1.900 7.530e+03
C2H6+O<=>C2H5+OH 3.550e+06 2.400 5.830e+03
C2H6+OH<=>C2H5+H2O 1.480e+07 1.900 9.500e+02
CH2CO+H<=>HCCO+H2 1.40068E15 -0.17131 8783.15059
CH2CO+H<=>CH3+CO 7.70374E+13 -0.17131 4183.15059
CH2CO+OH<=>HCCO+H2O 1.000e+13 0.000 2.000e+03
CH2CO+OH<=>CH2OH+CO 2.000e+12 0.000 -1.010e+03
HCCO+O2=>OH+CO+CO 1.91E+11 -0.02 1.02E+03
HCCO+O2=>CO2+CO+H 4.78E+12 -0.142 1.15E+03

!************************************C0/C1***********************************
CH3+O2=CH3O+O    1.99E18 -1.57 2.923E4
CH3+HO2=CH3O+OH    2.41E10 0.76 -2.325E3
CH2OH+M=CH2O+H+M    1.0E14 0.0 2.51E4
CH2OH+H=CH2O+H2    6.0E12 0.0 0.0E0
CH2OH+H=CH3+OH    9.635E13 0.0 0.0E0
CH2OH+O=CH2O+OH    4.2E13 0.0 0.0E0
CH2OH+OH=CH2O+H2O    2.4E13 0.0 0.0E0
CH2OH+O2=CH2O+HO2    2.41E14 0.0 5.017E3
    DUP
CH2OH+O2=CH2O+HO2    1.51E15 -1.0 0.0E0
    DUP
CH2OH+HO2=CH2O+H2O2    1.2E13 0.0 0.0E0
CH2OH+HCO=CH3OH+CO    1.0E13 0.0 0.0E0
CH2OH+HCO=2CH2O    1.5E13 0.0 0.0E0
2CH2OH=CH3OH+CH2O    3.0E12 0.0 0.0E0
CH2OH+CH3O=CH3OH+CH2O    2.4E13 0.0 0.0E0
CH3O+M=CH2O+H+M    8.3E17 -1.2 1.55E4
CH3O+H=CH3+OH    3.2E13 0.0 0.0E0
CH3O+O=CH2O+OH    6.0E12 0.0 0.0E0
CH3O+OH=CH2O+H2O    1.8E13 0.0 0.0E0
CH3O+O2=CH2O+HO2    9.033E13 0.0 1.198E4
    DUP

CH3O+O2=CH2O+HO2    2.2E10 0.0 1.748E3
    DUP
CH3O+HO2=CH2O+H2O2    3.0E11 0.0 0.0E0
CH3O+CO=CH3+CO2    1.6E13 0.0 1.18E4
CH3O+HCO=CH3OH+CO    9.0E13 0.0 0.0E0
2CH3O=CH3OH+CH2O    6.0E13 0.0 0.0E0
OH+CH3(+M)=CH3OH(+M)    2.79E18 -1.43 1.33E3
    H2O/6.0/
    CO2/2.0/
    H2/2.0/
    CO/1.5/
    CH4/2.0/
    LOW/4.0E36 -5.92E0 3.14E3/
    TROE/4.12E-1 1.95E2 5.9E3 6.394E3/
H+CH2OH(+M)=CH3OH(+M)    1.055E12 0.5 8.6E1
    H2O/6.0/
    CO2/2.0/
    H2/2.0/
    CO/1.5/
    CH4/2.0/
    LOW/4.36E31 -4.65E0 5.08E3/
    TROE/6.0E-1 1.0E2 9.0E4 1.0E4/
H+CH3O(+M)=CH3OH(+M)    2.43E12 0.515 5.0E1
    H2O/6.0/
    CO2/2.0/
    H2/2.0/
    CO/1.5/
    CH4/2.0/
    LOW/4.66E41 -7.44E0 1.408E4/
    TROE/7.0E-1 1.0E2 9.0E4 1.0E4/
CH3OH+H=CH2OH+H2    3.2E13 0.0 6.095E3
CH3OH+H=CH3O+H2    8.0E12 0.0 6.095E3
CH3OH+O=CH2OH+OH    3.88E5 2.5 3.08E3
CH3OH+OH=CH3O+H2O    1.0E6 2.1 4.967E2
CH3OH+OH=CH2OH+H2O    7.1E6 1.8 -5.96E2
CH3OH+O2=CH2OH+HO2    2.05E13 0.0 4.49E4
CH3OH+HCO=CH2OH+CH2O    9.635E3 2.9 1.311E4
CH3OH+HO2=CH2OH+H2O2    3.98E13 0.0 1.94E4
CH3OH+CH3=CH2OH+CH4    3.19E1 3.17 7.172E3
CH3O+CH3OH=CH3OH+CH2OH    3.0E11 0.0 4.06E3

H+O2=O+OH    3.547E15 -0.406 1.6599E4
O+H2=H+OH    5.08E4 2.67 6.29E3
H2+OH=H2O+H    2.16E8 1.51 3.43E3
O+H2O=2OH    2.97E6 2.02 1.34E4
H2+M=2H+M    4.577E19 -1.4 1.0438E5
    H2/2.5/
    H2O/12.0/
    CO/1.9/
    CO2/3.8/
2O+M=O2+M    6.165E15 -0.5 0.0E0
    H2/2.5/
    H2O/12.0/
    CO/1.9/
    CO2/3.8/
O+H+M=OH+M    4.714E18 -1.0 0.0E0
    H2/2.5/
    H2O/12.0/
    CO/1.9/
    CO2/3.8/
H+OH+M=H2O+M    3.8E22 -2.0 0.0E0
    H2/2.5/
    H2O/12.0/
    CO/1.9/
    CO2/3.8/
H+O2(+M)=HO2(+M)    1.475E12 0.6 0.0E0
    H2/2.0/
    H2O/11.0/
    O2/0.78/
    CO/1.9/
    CO2/3.8/
    LOW/6.366E20 -1.72E0 5.248E2/
    TROE/8.0E-1 1.0E-30 1.0E30/
HO2+H=H2+O2    1.66E13 0.0 8.23E2
HO2+H=2OH    7.079E13 0.0 2.95E2
HO2+O=O2+OH    3.25E13 0.0 0.0E0
HO2+OH=H2O+O2    2.89E13 0.0 -4.97E2
2HO2=H2O2+O2    4.2E14 0.0 1.1982E4
    DUP
2HO2=H2O2+O2    1.3E11 0.0 -1.6293E3
    DUP

H2O2(+M)=2OH(+M)    2.951E14 0.0 4.843E4
    H2/2.5/
    H2O/12.0/
    CO/1.9/
    CO2/3.8/
    LOW/1.202E17 0.0E0 4.555E4/
    TROE/5.0E-1 1.0E-30 1.0E30/
H2O2+H=H2O+OH    2.41E13 0.0 3.97E3
H2O2+H=HO2+H2    4.82E13 0.0 7.95E3
H2O2+O=OH+HO2    9.55E6 2.0 3.97E3
H2O2+OH=HO2+H2O    1.0E12 0.0 0.0E0
    DUP
H2O2+OH=HO2+H2O    5.8E14 0.0 9.557E3
    DUP
    
CO+O(+M)=CO2(+M)    1.8E10 0.0 2.384E3
    H2/2.5/
    H2O/12.0/
    CO/1.9/
    CO2/3.8/
    LOW/1.55E24 -2.79E0 4.191E3/
CO+O2=CO2+O    2.53E12 0.0 4.77E4
CO+HO2=CO2+OH    3.01E13 0.0 2.3E4
CO+OH=CO2+H    2.229E5 1.89 -1.1587E3
HCO+M=H+CO+M    4.749E11 0.659 1.4874E4
    H2/2.5/
    H2O/6.0/
    CO/1.9/
    CO2/3.8/
HCO+O2=CO+HO2    7.58E12 0.0 4.1E2
HCO+H=CO+H2    7.23E13 0.0 0.0E0
HCO+O=CO+OH    3.02E13 0.0 0.0E0
HCO+OH=CO+H2O    3.02E13 0.0 0.0E0
HCO+O=CO2+H    3.0E13 0.0 0.0E0
HCO+HO2=CO2+OH+H    3.0E13 0.0 0.0E0
HCO+CH3=CO+CH4    2.65E13 0.0 0.0E0
2HCO=>H2+2CO    3.0E12 0.0 0.0E0
2HCO=CH2O+CO    3.0E13 0.0 0.0E0
HO2CHO=OCHO+OH    5.01E14 0.0 4.015E4
H+CO2+M=OCHO+M    7.5E13 0.0 2.9E4
CH2O+M=HCO+H+M    3.3E39 -6.3 9.99E4
    H2/2.5/
    H2O/12.0/
    CO/1.9/
    CO2/3.8/
CH2O+M=CO+H2+M    3.1E45 -8.0 9.751E4
    H2/2.5/
    H2O/12.0/
    CO/1.9/
    CO2/3.8/
CH2O+H=HCO+H2    5.74E7 1.9 2.7486E3
CH2O+O=HCO+OH    1.81E13 0.0 3.08E3
CH2O+OH=HCO+H2O    3.43E9 1.18 -4.47E2
CH2O+O2=HCO+HO2    1.23E6 3.0 5.2E4
CH2O+HO2=HCO+H2O2    4.11E4 2.5 1.021E4
CH2O+CH3=HCO+CH4    3.636E-6 5.42 9.98E2
CH3+O=CH2O+H    8.43E13 0.0 0.0E0
CH3+O2=CH2O+OH    3.51E-1 3.524 7.38E3
CH3+H(+M)=CH4(+M)    1.27E16 -0.63 3.83E2
    H2/2.0/
    H2O/6.0/
    CH4/2.0/
    CO/1.5/
    CO2/2.0/
    LOW/2.477E33 -4.76E0 2.44E3/
    TROE/7.83E-1 7.4E1 2.941E3 6.964E3/
CH4+H=CH3+H2    5.47E7 1.97 1.121E4
CH4+O=CH3+OH    3.15E12 0.5 1.029E4
CH4+OH=CH3+H2O    5.72E6 1.96 2.639E3
CH3+HO2=CH4+O2    3.16E12 0.0 0.0E0
CH4+HO2=CH3+H2O2    1.81E11 0.0 1.858E4
CH4+CH2=2CH3    2.46E6 2.0 8.27E3
CH3+OH=CH2+H2O    5.6E7 1.6 5.42E3
CH2+H(+M)=CH3(+M)    2.5E16 -0.8 0.0E0
    H2/2.0/
    H2O/6.0/
    CH4/2.0/
    CO/1.5/
    CO2/2.0/
    LOW/3.2E27 -3.14E0 1.23E3/
    TROE/6.8E-1 8.0E0 1.995E3 5.59E3/
CH2+O=HCO+H    8.0E13 0.0 0.0E0
CH2+OH=CH2O+H    2.0E13 0.0 0.0E0
CH2+H2=H+CH3    5.0E5 2.0 7.23E3
CH2+O2=HCO+OH    1.32E13 0.0 1.5E3
CH2+HO2=CH2O+OH    2.0E13 0.0 0.0E0
CH2+CO(+M)=CH2CO(+M)    8.1E11 0.5 4.51E3
    H2/2.0/
    H2O/6.0/
    CH4/2.0/
    CO/1.5/
    CO2/2.0/
    LOW/2.69E33 -5.11E0 7.095E3/
    TROE/5.907E-1 2.75E2 1.226E3 5.185E3/
2CH2=C2H2+H2    3.2E13 0.0 0.0E0
END
