REACTIONS     
C2H5CN+CH2CN=NCCH2CN+C2H5                   1.77E+09           0.805           24190.95  
   PLOG / 1.31E-04 2.35E+04 2.197 21164.95 /
   PLOG / 1.31E-03 3.31E+04 2.154 21245.83 /
   PLOG / 1.00E+00 1.77E+09 0.805 24190.95 /
   PLOG / 1.00E+01 1.94E+11 0.277 26551.64 /
   PLOG / 1.00E+02 1.14E+07 1.612 26774.06 /

C2H5CN+CH2CN=CH3CN+CH2CH2CN                     1.34E-04	4.915	13067.54
C2H5CN+CH2CN=CH3CN+CH3CHCN                      5.97E-02	3.863	 9567.8
C4H5N+NH2=PYRLYL+NH3      		4.48E-04	4.768	 7183.5
C4H5N+NH2=C4H4N+NH3      		9.18E+01	3.408	15025.98
   DUPLICATE
C4H5N+NH2=C4H4N+NH3      		7.67E+01	3.373	14560.58
   DUPLICATE

C4H5N+CH2CN=PYRLYL+CH3CN    	8.17E-15	7.866	11089.59
C4H5N+CH2CN=C4H4N+CH3CN    	6.72E+00	3.581	23852.17
   DUPLICATE
C4H5N+CH2CN=C4H4N+CH3CN    	4.41E+02	3.128	23589.54
   DUPLICATE

PYRLNE+CH2CN=CH3CN+PYRLYL             	2.23E-03	4.471	 6269.4  
A-C3H5CN+CH2CN=A-C3H4CN+CH3CN              	5.32E-04	4.721	 6506.28
A-C3H5CN+CH2CN=C-C3H4CN+CH3CN           	8.49E-02	3.994	18222.95
C-C3H5CN+CH2CN=A-C3H4CN+CH3CN     	4.90E-05	4.873	 7821.36
C-C3H5CN+CH2CN=C3H4CN+ CH3CN    	1.71E-02	4.191	15874.32
T-C3H5CN+CH2CN=A-C3H4CN+CH3CN     	4.90E-05	4.873	 7821.36
T-C3H5CN+CH2CN=C3H4CN+ CH3CN    	1.71E-02	4.191	15874.32
C5H5N+CH2CN=o-C5H4N+CH3CN                   	2.92E-01	4.011	15183.48 
C5H5N+CH2CN=m-C5H4N+CH3CN                   	4.44E+00	3.638	19493.79 
C5H5N+CH2CN=p-C5H4N+CH3CN                   	5.19E-02	4.741	18591.51 
CH2CN+CH3=C2H5CN       		3.40E+10           	0.06            	-1700.0   
HCCN+CH4=CH2CN+CH3           	6.22E+03  	2.883  	-990.21
C4H5N+CN=PYRLYL+HCN  		2.00E+14	-0.5  	0.0
C4H5N+CN=C4H4N+HCN             	2.38E+01	3.719  	1168.6
   DUPLICATE
C4H5N+CN=C4H4N+HCN             	7.84E+02  	3.271  	-3631.48
   DUPLICATE

C4H5N=PYRLNE                    	3.16E+13    	0.005     	46300.0
C4H5N=HNCPROP                               	5.50E+13    	0.0	77200.0
PYRLNE=H+A-C3H4CN      		3.06E+17	0.0	86663
HNCPROP=HCN+PC3H4                          	1.10E+13     	0.0   	36257.1
PYRLNE=C-C3H5CN       		4.96E+15          	0.0	69980.0     
PYRLNE=A-C3H5CN     		5.25E+15	0.0  	75645.0
CH2CN+C2H3=A-C3H5CN                         	2.00E+14	0.0	0.0
C3H4CN=HCCCN+CH3                            	6.00E+14    	0.0   	42000.0
A-C3H4CN=C-C3H4CN                           	5.00E+13    	0.0   	51982.8
A-C3H4CN=C3H4CN              	1.00E+14          	0.0             	60000.0   
CH2CHCN+H=CH3CHCN  		1.00E+13    	0.0      	4706.20
CH2CH2CN=CH2CHCN+H  		3.10E+13   	0.0   	36570
C-C3H5CN+H=CH3+CH2CHCN  	6.00E+12     	0.0    	5996.2
T-C3H5CN+H=CH3+CH2CHCN  	6.00E+12     	0.0    	5996.2
CH2CHCN+H=C2H3+HCN      	5.00E+12   	0.0    	8000
CH2CHCN=C2H2+HCN                2.60E+12   	0.13   	76000.0
CH2CHCN=HCCCN+H2             	1.80E+12    	0.19   	76000.0
CH2CCHCN+H=A-C3H4CN             4.67E+51         -11.45            21340.0   
PLOG /  0.0013  2.21E+61  -15.25    20076  /
PLOG / 0.0013  2.80E+38   -8.67    8035 / 
PLOG /  0.0395   1.24E+52  -12.02   17839  /
PLOG /  0.0395  0.693E+37  -8.19   7462 /
PLOG /  1  4.67E+51   -11.45    21340  /
PLOG /  1  3.32E+30   -5.78   6913 /
PLOG /  10  3.75E+48   -10.27    22511  /
PLOG /  10  2.29E+26  -4.32   6163  /
PLOG /  100  4.23E+43  -8.61   22522  /
PLOG /  100  4.38E+21  -2.71   5187 /
C5H3N+H=o-C5H4N                             7.75E+28          -4.542           14120.0   
  PLOG / 0.1 7.01E+28 -4.525 14140.0 / 
  PLOG / 1 7.75E+28 -4.542 14120.0 / 
  PLOG / 10 1.62E+29 -4.631 14360.0 / 
  PLOG / 100 3.14E+33 -5.806 17970.0 / 

CH2CN+C3H3=CH2CCHCH2CN         	1.00E+12	0.0	0.0
CH2CCHCH2CN=C5H5N            	1.0E+163     	-48.0  	49000.0
   DUPLICATE
CH2CCHCH2CN=C5H5N            	1.00E+13      	0.0    	80000.0
   DUPLICATE

CH2CN+CN=NCCH2CN        	6.00E+13   	0.0   	0.0
HCCN+HCN=NCCH2CN    		4.83E-17    	9.41     	2490.0
CH2CN+CH2CN=NCCH2CH2CN                   	2.30E+13   	0.0       	0.0
C-C3H5CN=T-C3H5CN                           	1.40E+14     	0.0   	57572.9
A-C3H5CN=C-C3H5CN                           	7.20E+14     	0.0 	58862.9
A-C3H5CN=T-C3H5CN                           	7.00E+14     	0.0   	61968.5
A-C3H5CN+H=C2H4+CH2CN                       	1.00E+13    	0.0 	3010.0
AC3H4+C3H3=A1+H         	1.40E+12	0.0	10000.0
PC3H4+C3H3=A1+H         	1.40E+12	0.0	10000.0

PYRLYL+H=C4H5N                   	1.00E+14          	0.0                 	0.0   
C4H4N+H=C4H5N                 	1.00E+14   	0.0   	0.0
PYRLNE=HNCPROP        		2.51E+15  	0.0	79398.0
PYRLYL+H=PYRLNE            	1.00E+14          	0.0                 	0.0   
c-C5H5+H(+M)=c-C5H6(+M)         	1.00E+14      	0.0       	0.0
    LOW / 4.40E+80	-18.28	13000.0 /
    TROE / 0.0680 401. 4136. 5502./			
    CO/1.5/    CO2/2.0/    H2O/6.0/    H2/2.0/    CH4/2.0/			
C-C3H5CN=HCN+PC3H4               	2.60E+12     	0.1   	75967.5
T-C3H5CN=HCN+PC3H4     		2.60E+12     	0.1   	75967.5
CHCHCN+CH3=C-C3H5CN       	4.00E+13     	0.0        	0.0
A-C3H4CN+H=C-C3H5CN      	5.00E+12     	0.0        	0.0
CHCHCN+CH3=T-C3H5CN     	4.00E+13     	0.0        	0.0
A-C3H4CN+H=T-C3H5CN       	5.00E+12     	0.0        	0.0
A-C3H4CN+H=A-C3H5CN   		5.00E+12     	0.0        	0.0
C3H5+CN=A-C3H5CN          	3.00E+13          	0.0              	0.0
HCNH+C3H3=HNCPROP   		2.00E+13          	0.0                 	0.0
C4H5N+H=PYRLYL+H2              	1.14E+03    	3.26     	13502.93
C4H5N+H=C4H4N+H2                8.90E+07    	2.01     	19376.57
   DUPLICATE
C4H5N+H=C4H4N+H2                6.97E+07    	1.99     	18676.93
   DUPLICATE

C4H5N+CH3=PYRLYL+CH4           	2.67E-02    	4.21     	12196.70
C4H5N+CH3=C4H4N+CH4     	1.24E+06    	2.16     	20613.19
   DUPLICATE
C4H5N+CH3=C4H4N+CH4     	9.49E+01    	3.27     	16952.83
   DUPLICATE

C4H5N+C2H3=PYRLYL+C2H4                      	1.02E+05       	2.0    	2730.26
C4H5N+C2H5=PYRLYL+C2H6                      	3.00E+04       	2.0    	5405.42
C4H5N+NC3H7=PYRLYL+C3H8                     	2.03E+04       	2.0    	5405.42
C4H5N+IC3H7=PYRLYL+C3H8                     	2.03E+04       	2.0    	8487.19
C4H5N+SC3H5=PYRLYL+C3H6                     	4.05E+04       	2.0    	3301.27
C4H5N+TC3H5=PYRLYL+C3H6                     	4.05E+04       	2.0    	3301.27
C4H5N+C3H5=PYRLYL+C3H6                      	8.08E+04       	2.0   	11294.92
C4H5N+NC4H5=PYRLYL+CH2CHCHCH2                   4.05E+04       	2.0    	3301.27
C4H5N+C4H71-4=PYRLYL+C4H8-1                 	2.03E+04       	2.0    	5309.47
C4H5N+C4H71-3=PYRLYL+C2C4H8                 	5.10E+04       	2.0   	12168.47
C4H5N+IC4H7=PYRLYL+IC4H8                    	4.05E+04       	2.0   	12168.47
C4H5N+NC4H3=PYRLYL+CH2CHCCH                     6.14E+04       	2.0    	3969.14
C4H5N+A1-=PYRLYL+A1                         	5.55E+07       	1.0    	1067.64
C4H5N+c-C5H5=PYRLYL+c-C5H6                  	5.10E+04       	2.0   	12459.86
C4H5N+C3H3=PYRLYL+AC3H4                     	4.05E+04       	2.0   	12459.86
C4H5N+NCCHCN=PYRLYL+NCCH2CN                     6.90E-17           	8.313           	10726.79
C4H5N+NCCHCN=C4H4N+NCCH2CN                     	3.54E+00           	3.552           	23350.96  
   DUPLICATE
C4H5N+NCCHCN=C4H4N+NCCH2CN                     	8.05E+00           	3.554           	23030.37  
   DUPLICATE

PYRLNE+H=PYRLYL+H2        	9.02E+05           	2.35             	2388.54  
PYRLNE+CH3=PYRLYL+CH4   	2.77E+00     	3.731      	4701.60   
c-C5H6+CH3=c-C5H5+CH4         	2.77E+00     	3.731      	4701.60   
c-C5H6+C2H3=c-C5H5+C2H4       	1.20E-01        	4.0           	0.0
PYRLNE+C2H3=PYRLYL+C2H4 	1.20E-01        	4.0           	0.0
A1-+c-C5H6=c-C5H5+A1    	1.00E-01   	4.0   	0.0
PYRLNE+A1-=PYRLYL+A1  		1.00E-01   	4.0   	0.0
c-C5H6+C3H5=c-C5H5+C3H6    	1.10E+11   	0.0   	5505.0
PYRLNE+C3H5=PYRLYL+C3H6 	1.10E+11   	0.0   	5505.0
c-C5H6+C3H3=c-C5H5+PC3H4        1.10E+11   	0.0   	5505.0
PYRLNE+C3H3=PYRLYL+PC3H4        1.10E+11   	0.0   	5505.0
PYRLNE+CN=HCN+PYRLYL  		6.78E+05    	2.0   	4871.29
PYRLNE+C2H5=PYRLYL+C2H6 	1.20E+05       	2.0    	6700.0
PYRLNE+NC3H7=PYRLYL+C3H8        8.10E+04       	2.0    	6700.0
PYRLNE+IC3H7=PYRLYL+C3H8 	8.10E+04       	2.0    	9900.0
PYRLNE+SC3H5=PYRLYL+C3H6        1.62E+05       	2.0    	4500.0
PYRLNE+TC3H5=PYRLYL+C3H6        1.62E+05       	2.0    	4500.0
PYRLNE+NC4H5=PYRLYL+CH2CHCHCH2  1.62E+05       	2.0    	4500.0
PYRLNE+C4H71-4=PYRLYL+C4H8-1       	8.10E+04       	2.0    	6600.0
PYRLNE+C4H71-3=PYRLYL+C2C4H8       	2.04E+05       	2.0   	13700.0
PYRLNE+IC4H7=PYRLYL+IC4H8              	1.62E+05       	2.0   	13700.0
PYRLNE+NC4H3=PYRLYL+CH2CHCCH          	2.45E+05       	2.0    	5200.0
PYRLNE+c-C5H5=PYRLYL+c-C5H6               	2.04E+05       	2.0   	14000.0
C-C3H5CN+H=H2+A-C3H4CN 		3.64E+05          	2.455            	4361.2   
T-C3H5CN+H=H2+A-C3H4CN  	3.64E+05          	2.455            	4361.2   
T-C3H5CN+H=H2+C3H4CN    	2.25E+07          	1.93            	12950.0   
C-C3H5CN+H=H2+C3H4CN   		2.25E+07          	1.93            	12950.0   
C-C3H5CN+CH3=CH4+A-C3H4CN       2.21E+00         	3.5              	5675.0  
T-C3H5CN+CH3=CH4+A-C3H4CN     	2.21E+00         	3.5              	5675.0  
T-C3H5CN+CH3=CH4+C3H4CN 	4.85E+02          	2.947           	15148.0   
C-C3H5CN+CH3=CH4+C3H4CN 	4.85E+02          	2.947           	15148.0   
C-C3H5CN+CN=A-C3H4CN+HCN        9.00E+13   	0.0      	-500.0
T-C3H5CN+CN=C3H4CN+HCN  	5.00E+04 	2.0   	5083.29
C-C3H5CN+CN=C3H4CN+HCN 		5.00E+04 	2.0   	5083.29
T-C3H5CN+CN=A-C3H4CN+HCN     	9.00E+13   	0.0     	-500
C-C3H5CN+CHCHCN=A-C3H4CN+CH2CHCN     	5.00E+11     	0.0    	8002.9
T-C3H5CN+CHCHCN=C3H4CN+ CH2CHCN    	5.00E+11     	0.0    	8002.9
C-C3H5CN+CHCHCN=C3H4CN+ CH2CHCN      	5.00E+11     	0.0    	8002.9
T-C3H5CN+CHCHCN=A-C3H4CN+CH2CHCN     	5.00E+11     	0.0    	8002.9
A-C3H5CN+H=C3H5+HCN   		7.00E+12    	0.0 	3010.0
A-C3H5CN+H=H2+A-C3H4CN                      	1.90E+02	3.5	1627.0
A-C3H5CN+H=H2+C-C3H4CN                      	2.25E+07	1.93	12950.0
A-C3H5CN+CH3=CH4+A-C3H4CN                   	7.14E+00	3.57	7642.0
A-C3H5CN+CH3=CH4+C-C3H4CN                     	4.85E+02	2.947	15148.0
A-C3H5CN+CN=A-C3H4CN+HCN        	9.00E+13   	0.0      	-500.0
A-C3H5CN+CN=C-C3H4CN+HCN               	5.00E+04	2.0   	5083.29
A-C3H5CN+CHCHCN=A-C3H4CN+CH2CHCN       	5.00E+11     	0.0    	8002.9
A-C3H5CN+CHCHCN=C-C3H4CN+CH2CHCN    	5.00E+11     	0.0    	8002.9
HNCPROP+H=HNCPROPR+H2  			1.20E+07    	2.0      	9957.26
HNCPROP+CH3=HNCPROPR+CH4                              	1.20E+05    	2.0     	11196.53
HNCPROP+C2H3=HNCPROPR+C2H4                             	2.71E+05    	2.0      	9832.26
HNCPROP+C2H5=HNCPROPR+C2H6                            	8.00E+04    	2.0     	13265.38
HNCPROP+CN=HNCPROPR+HCN                  	4.07E+06	2.0  	12361.94
HNCPROP+CH2CN=HNCPROPR+CH3CN              	8.10E+04    	2.0     	14000.0
HNCPROP+NH2=HNCPROPR+NH3                               	6.40E+04    	2.0      	7441.96
HNCPROPR=C3H3+HNC                   	2.00E+12           	0.0                 	0.0   
C4H4N=A-C3H4CN         		1.00E+13  	0.0	43000.0
C4H4N=PYRLYL         		1.00E+13  	0.0	43000.0
C-C3H4CN=PYRLYL 		1.84E+94   	-24.4   	73000.0
C3H3+C2H2=c-C5H5                            2.02E+42          -9.1             27000.0   
    PLOG/1.0E0 3.58E58 -1.42E1 3.17E4/
    PLOG/1.0E1 3.2E44 -9.9E0 2.62E4/
    PLOG/1.0E2 2.02E42 -9.1E0 2.7E4/
C3H3+C2H2=C5H5                              1.51E+32          -6.0             22600.0   
    PLOG/1.0E0 2.68E45 -1.03E1 2.56E4/
    PLOG/1.0E1 4.62E36 -7.5E0 2.28E4/
    PLOG/1.0E2 1.51E32 -6.0E0 2.26E4/
C5H5=c-C5H5                                 	1.84E+94   	-24.4   	79300.0
C-C3H4CN=C3H3+HCN  	1.01E+68   	-16.1  	83000.0
PYRLYL=C3H3+HCN     	7.55E+99  	-24.4  	128200.0
PC3H4+CN=C3H4CN       	9.30E+38	-8.76    	12000.0
PC3H4+CN=CH2CCHCN+H      	2.47E+14   	0.0  	0.0
CN+AC3H4=CH2CCHCN+H  	5.61E+18         	-1.48              	996.0   
C-C3H4CN=C2H2+CH2CN        	5.00E+13	0.0	28000.0
PC3H4+CN=C-C3H4CN    	9.30E+38	-8.76    	12000.0
A-C3H4CN=HCCCN+CH3   	1.00E+14     	0.0   	81963.7
CN+C3H3=CH2CCHCN               	3.00E+13   	0.0   	0.0
CH2CCHCN+H=>H2+C3H2+CN                                  	1.80E+07    	2.0      	9957.26
CH2CCHCN+CH3=>CH4+C3H2+CN                               	1.80E+05    	2.0     	11196.53
CH2CCHCN+C2H3=>C2H4+C3H2+CN                             	4.07E+05    	2.0      	9832.26
CH2CCHCN+C2H5=>C2H6+C3H2+CN                             	1.20E+05    	2.0     	13265.38
CH2CCHCN+NH2=>C3H2+NH3+CN                               	9.60E+04    	2.0      	7441.96
CH2CCHCN+CN=>C3H2+HCN+CN                                	4.07E+05    	2.0      	9832.26
NCCH2CH2CN=CH2CHCN+HCN               	2.90E+14   	0.0   	87440.0
NCCH2CH2CN=NCCHCH2CN+H   		2.50E+15   	0.0   	95630.0
NCCH2CH2CN+H=NCCHCH2CN+H2           	3.00E+13   	0.0    	5000.0
NCCH2CH2CN+H=CH2CH2CN+HCN            	2.00E+14   	0.0   	10000.0
NCCH2CH2CN+C2H3=NCCHCH2CN+C2H4          4.07E+05    	2.0      	3900.0
NCCH2CH2CN+C2H5=NCCHCH2CN+C2H6          1.20E+05    	2.0      	6700.0
NCCH2CH2CN+NH2=NCCHCH2CN+NH3            9.60E+04    	2.0      	2024.08
NCCH2CH2CN+CN=NCCHCH2CN+HCN      	5.00E+13   	0.0    	2000.0
NCCH2CH2CN+CH3=NCCHCH2CN+CH4        	1.50E+00      	3.46     	5480.0
C3H8+CH3=IC3H7+CH4                 	1.50E+00      	3.46     	5480.0
NCCH2CH2CN+CH2CN=NCCHCH2CN+CH3CN       	1.57E-02	4.312	15477.89
NCCHCH2CN=CH2CHCN+CN         	2.20E+14   	0.0   	55000.0
NCCHCH2CN=NCCHCHCN+H     	5.60E+13   	0.0   	47460.0
HCCN+HCCN=NCCHCHCN       	1.00E+13     	0.0        	0.0
NCCHCHCN=HCCCN+HCN       	5.00E+13     	0.0   	73960.8
NCCHCHCN+H=CHCHCN+HCN		1.00E+13     	0.0             	2000.0
CHCHCN+CN= NCCHCHCN       	3.00E+13  	0.0        	0.0
CH2CHCN+CN=NCCN+C2H3       	5.55E-05   	5.43  	0.0
CH2CHCN+CN=NCCHCHCN+H     	6.36E+12   	0.18   	0.0
   DUPLICATE
CH2CHCN+CN=NCCHCHCN+H     	1.24E+12      	0.36    	0.0
   DUPLICATE

C2H5+CN=C2H5CN       		3.00E+13     	0.0       	0.0
C2H5CN=H+CH2CH2CN        	1.00E+15     	0.0   	97945.5
C2H5CN=H+CH3CHCN            	3.00E+15     	0.0   	91949.4
C2H5CN+H=H2+CH2CH2CN    	6.30E+13     	0.0    	6999.5
C2H5CN+H=H2+CH3CHCN     	6.30E+13     	0.0    	6593.4
C2H5CN+H=HCN+C2H5       	1.00E+14     	0.0    	9985.7
C2H5CN+CH3=CH4+CH2CH2CN 	1.00E+12    	0.0    	8002.9
C2H5CN+CH3=CH4+CH3CHCN   	1.00E+12    	0.0    	8002.9
C2H5CN+C2H3=C2H4+CH3CHCN                               	2.03E+05    	2.0      	3900.0
C2H5CN+C2H3=C2H4+CH2CH2CN                              	2.03E+05    	2.0      	6239.48
C2H5CN+C2H5=C2H6+CH3CHCN                               	6.00E+04    	2.0      	6700.0
C2H5CN+C2H5=C2H6+CH2CH2CN                              	6.00E+04    	2.0      	9289.16
C2H5CN+NH2=NH3+CH2CH2CN                                	4.80E+04    	2.0      	4160.70
C2H5CN+NH2=NH3+CH3CHCN                                 	4.80E+04    	2.0      	2024.08
C2H5CN+CN=HCN+CH2CH2CN                                 	2.03E+05    	2.0      	6239.48
C2H5CN+CN=HCN+CH3CHCN                                  	2.03E+05    	2.0      	3900.0
CH2CH2CN=C2H4+CN        	1.80E+15    	0.0   	60000.0
HCCN+CH3=CH3CHCN       		2.50E+11   	0.0  	-430.2
CN+C2H3=CH2CHCN                 6.30E+13     	0.0       	0.0
CHCHCN+H=CH2CHCN         	4.00E+13     	0.0       	0.0
CH2CHCN+H=CHCHCN+H2    		5.00E+13   	0.0    	8000.0
CH2CHCN+C2H3=CHCHCN+C2H4 	1.00E+14     	0.0    	8000.0
CHCHCN=HCCCN+H            	1.00E+13     	0.0   	42700.0
CHCHCN=C2H2+CN                	5.00E+13     	0.0   	50700.0
CHCHCN+CHCHCN=CH2CHCN+HCCCN     1.00E+50  	-10.5   	67964.6
CH3CN+H=CH2CN+H2   		6.08E+04   	3.01    	8522.2
CH3CN+H=HCN+CH3    		1.90E+12   	0.36    	8156.6
CH3CN+H=HNC+CH3       		3.14E+15  	-0.34   	20035.0
NCCH2CN+H=HCN+CH2CN           	1.90E+12          	0.36             	8156.6   
NCCH2CN+H=HNC+CH2CN        	3.14E+15         	-0.34            	20035.0   
NCCH2CN+H=NCCHCN+H2         	3.00E+13           	0.0              	5000.0   
NCCH2CN+C2H3=NCCHCN+C2H4  	4.07E+05          	2.0              	3900.0   
NCCH2CN+C2H5=NCCHCN+C2H6  	1.20E+05          	2.0              	6700.0   
NCCH2CN+NH2=NCCHCN+NH3   	9.60E+04          	2.0              	2024.08  
NCCH2CN+CN=NCCHCN+HCN      	5.00E+13           	0.0              	2000.0   
NCCH2CN+CH3=NCCHCN+CH4    	1.50E+00      	3.46     	5480.0
NCCH2CN+CH2CN=NCCHCN+CH3CN      7.86E-03	4.312	15477.89
HCCN+CN=NCCHCN      		1.00E+14   	0.0  	0.0
NCCHCN+H=NCCH2CN   		1.00E+14   	0.0  	0.0
CN+HCN=NCCN+H                  	1.51E+07          	1.71	  1530.0
CH3CN+C2H5=CH2CN+C2H6      	2.23E+00          	3.5              	6640.0   
CH3CN+CH3=CH2CN+CH4             2.21E+00          	3.5              	5680.0   
CH2CCCH2+CN=C5H3N+H  		2.00E+14          	-0.5                 	0.0   
CN+PC3H4=HCN+C3H3               1.00E+14          	0.0                 	0.0   

