! The model for HN was developed based cbs-qb3//wb97xd/6-311++g(d,p)/scrf=(smd,solvent=water) level of theory. 2021/3/3.
! The model was developed based on cbs-qb3//wb97xd/6-311++g(d,p)/scrf=(smd,solvent=water) level of theory. 2020/11/25.
! k = A * T^n * exp(-Ea/RT). A is in a system of [mol cm^3 s]. Ea is in cal/mol.

!
ELEMENTS
H O N Cl
END

SPECIES
AN HN NH4-NO2
HNO3 N2O5 NO3a
N2H4 N2H3 c-N2H2 t-N2H2 NNH NH3 NH4c NH2 N2 N2H3a N2H3c N2H4c N2H5c N2H5
NO NO2 N2O3 N2O4 tN2O4 N2O
N2H5-NO2 N2H4-NO2 N2H4-NO2-ii N2H3-NO2
HNO HONO HNO2 HNO3 NO3a NO2a
NH2NHNO2 NH2NHNO NH2NNOH NH3NO2c NH2NO2 NHNO2H NH3NOc NH2NO NHNOH
NH2ONO NH2O
O2NNHNHNO HO2NNHNNO HNN-NO
O2NNHNHNO2 HO2NNHNNO2 c-HNN-NO2 t-HNN-NO2
HN3 N3NO N3 NH(t)
H2O H2 H OH H2O2 H3Oc OHa
NH4Cl Cla NO2Cl NO2ClNH3 NH3Clc NH2Cl HCl NH2Cl-HONO NH2Cl-HNO3
! "c" represents cation, "a" represents anion
END

REACTIONS MOLES CAL/MOLE
!HNO3+HCl identified and modeled in this study
HNO3+HCl=NO2Cl+H2O			1.92E+06  2.22  18629 ! TST G4/wB97X-D/SMD+diff

NO2ClNH3=NH3+NO2Cl			1.44E+20  -1.92  7517 ! VTST G4/wB97X-D/SMD+diff
NO2ClNH3=NO2a+NH3Clc		5.31E+18  -1.79 12941 ! VTST G4/wB97X-D/SMD+diff

NH2Cl-HONO=NH2Cl+HONO		3.03E+18  -1.36  8975 ! VTST G4/wB97X-D/SMD+diff
NH2Cl-HONO=NH3Clc+NO2a		2.44E+20  -2.22 20829 ! VTST G4/wB97X-D/SMD+diff

NH2Cl-HNO3=NH2Cl+HNO3		5.69E+19  -1.76 11169 ! VTST G4/wB97X-D/SMD+diff
NH2Cl-HNO3=NH3Clc+NO3a		4.13E+15  -2.10 14188 ! VTST G4/wB97X-D/SMD+diff

NH2Cl+NH2Cl=t-N2H2+HCl+HCl	2.13E+00  3.40  20209 ! TST G4/wB97X-D/SMD+diff

NH4Cl=NH3+HCl				7.80E+16 -0.65  22762 ! VTST G4/wB97X-D/SMD+diff
NH4Cl=NH4c+Cla				2.33E+14 -0.49   7622 ! VTST G4/wB97X-D/SMD+diff

!model from Y.Izato et al., J. Anal. Appl. Pyrolysis, 2019, 143, 104671
! AN radical reaction
HNO3=>NO2+OH				1.08E+14  1.16  47910 ! G4/wB97X-D/SMD
NO2+OH=>HNO3				7.87E+10  1.00   2424 ! diff_molten_an
NH3+OH=H2O+NH2				2.16E+03  2.95   4218 ! G4/wB97X-D/SMD
NH3+NO2=NH2+HONO			2.72E+01  3.61  18964 ! G4/wB97X-D/SMD
NH3+NO2=NH2+HNO2			1.42E+01  3.56  39067 ! G4/wB97X-D/SMD
NH2NO2=>NH2+NO2				7.74E+10  0.95  54339 ! G4/wB97X-D/SMD
NH2+NO2=>NH2NO2				7.87E+10  1.00   2424 ! diff_molten_an
NH2+NO2=>NH2ONO				7.87E+10  1.00   2424 ! diff_molten_an
NH2ONO=>NH2+NO2				2.26E+13  0.51  28686 ! G4/wB97X-D/SMD
NH2ONO=NH2O+NO				2.99E+11  0.70  18348 ! G4/wB97X-D/SMD
NH2+NO=NH2NO				7.87E+10  1.00   2424 ! diff_molten_an
NH2NO=NHNOH					3.75E-02  4.03  23379 ! G4/wB97X-D/SMD
NH2NO+H2O=NHNOH+H2O			5.29E+00  3.03  13170 ! G4/wB97X-D/SMD
NH2NO+HNO3=NHNOH+HNO3		6.95E-01  3.14  -4062 ! G4/wB97X-D/SMD
NHNOH+H2O=N2+H2O+H2O		1.68E+00  3.88   6180 ! G4/wB97X-D/SMD
NHNOH+NH3=N2+H2O+NH3		1.83E+01  3.52   -500 ! G4/wB97X-D/SMD
NHNOH+NO3a=N2+H2O+NO3a		3.42E+00  3.78   2713 ! G4/wB97X-D/SMD
NH2O+NO2=HNO+HONO			1.16E+03  2.56   1235 ! G4/wB97X-D/SMD
NH2O+NO2=HNO+HNO2			1.77E+03  2.64   2995 ! G4/wB97X-D/SMD
NH2O+OH=HNO+H2O				7.87E+10  1.00   2424 ! diff_molten_an
N2O+NH2=N2+NH2O				6.49E+03  2.66  32601 ! G4/wB97X-D/SMD

! AN ion reactions
AN=HNO3+NH3					2.57E+12  0.00  22951 ! G4/wB97X-D/SMD
AN=NH4c+NO3a				8.94E+13  0.00   5510 ! G4/wB97X-D/SMD

NO2a+HNO3=HONO+NO3a			7.87E+10  1.00   2424 ! diff_molten_an
HNO3+NH3=NH2NO2+H2O			2.70E+02  2.63  32432 ! G4/wB97X-D/SMD
HNO3+NH4c=NH3NO2c+H2O		1.79E+01  4.46  27570 ! G4/wB97X-D/SMD
NH3NO2c+NO3a=NH2NO2+HNO3	7.87E+10  1.00   2424 ! diff_molten_an
NH3NO2c+NH3=NH2NO2+NH4c		7.87E+10  1.00   2424 ! diff_molten_an
NH3NO2c+Cla=NH2NO2+HCl		7.87E+10  1.00   2424 ! diff_molten_an

HNO3+HNO3=N2O5+H2O			7.08E+01  3.23  14987 ! G4/wB97X-D/SMD
NH3+N2O5=NH2NO2+HNO3		2.10E+03  2.99  -1687 ! G4/wB97X-D/SMD
NH4c+N2O5=NH3NO2c+HNO3		8.21E+01  3.56  15726 ! G4/wB97X-D/SMD
HNO2+H2O=HONO+H2O			6.38E+03  2.71  13924 ! G4/wB97X-D/SMD
!NH3+tN2O4=>NH2NO+HNO3		7.87E+10  1.00   2424 ! diff_molten_an
NH2NO+HNO3=NH3+tN2O4		1.48E+01  3.06   4840 ! diff_molten_an
N2O4+NH3=NH2NO2+HONO		9.25E+01  2.87  14822 ! G4/wB97X-D/SMD
NH4c+tN2O4=HNO3+NH3NOc		7.46E+02  3.16  13862 ! G4/wB97X-D/SMD
NH3NOc+NO3a=NH2NO+HNO3		7.87E+10  1.00   2424 ! diff_molten_an
NH3NOc+NH3=NH2NO+NH4c		7.87E+10  1.00   2424 ! diff_molten_an

! NH2NO2 decomposition
NH2NO2=NHNO2H				2.53E+12  0.21  40434 ! G4/wB97X-D/SMD
NH2NO2+H2O=NHNO2H+H2O		4.63E+01  2.80  12337 ! G4/wB97X-D/SMD
NHNO2H=N2O+H2O				1.50E+06  2.53  30560 ! G4/wB97X-D/SMD
NHNO2H+H2O=N2O+H2O+H2O		4.41E-04  4.70  11061 ! G4/wB97X-D/SMD
NHNO2H+NO3a=N2O+H2O+NO3a	1.98E+01  3.77   8757 ! G4/wB97X-D/SMD
NHNO2H+NH3=N2O+H2O+NH3		1.62E+01  3.28  -1095 ! G4/wB97X-D/SMD

!model from Y.Izato et al., J. Phys. Chem. A, 2022, 126, 2998-3005
!ks for Diffusion-limitted reactions are re-modeled by using discosity of AN. 
! HNO3
HNO3+HONO=tN2O4+H2O			8.19E+00  3.42   -576 ! cbs-qb3//wb97x-d

! N2O5
N2O5+OHa=NO3a+HNO3			2.63E+05  2.37   -370 ! cbs-qb3//wb97x-d
tN2O4+OHa=NO3a+HONO			7.87E+10  1.00   2424 ! diff_molten_an

! N2H4+N2O5
N2H4+N2O5=NH2NHNO2+HNO3		1.09E+02  3.03  -3152 ! cbs-qb3//wb97x-d

! N2O5+N2H2
N2O5+t-N2H2=HONO+HNO3+N2	4.71E+02  3.13   -512 ! cbs-qb3//wb97x-d
N2O5+c-N2H2=HONO+HNO3+N2	1.44E+03  3.17     33 ! cbs-qb3//wb97x-d

! HONO+N2H4
N2H5c+HONO=NH2NHNO+H3Oc		2.12E-02  4.59  15207 ! cbs-qb3//wb97x-d
NH2NHNO=NH2NNOH				2.27E+13  -0.06 28795 ! cbs-qb3//wb97x-d
NH2NHNO+H2O=NH2NNOH+H2O		5.99E+01  2.79   8192 ! cbs-qb3//wb97x-d
NH2NHNO+HNO3=NH2NNOH+HNO3	7.87E+10  1.00   2424 ! diff_molten_an
NH2NNOH=HN3+H2O				7.34E+08  1.80  32040 ! cbs-qb3//wb97x-d
NH2NNOH+OHa=HN3+H2O+OHa		1.22E+04  3.23   4305 ! cbs-qb3//wb97x-d
NH2NNOH+N2H4=HN3+N2H4+H2O	5.58E+01  3.41  23053 ! cbs-qb3//wb97x-d

! HN3+HONO
HN3+HONO=N3NO+H2O			2.03E+01  3.58  13031 ! cbs-qb3//wb97x-d
N3NO=N2O+N2					1.06E+08  1.99  15531 ! cbs-qb3//wb97x-d

! N2O4
NO2+NO2=N2O4				3.87E+05  1.92   -767 ! cbs-qb3//wb97x-d
NO2+NO2=tN2O4				5.50E+00  3.22   4072 ! cbs-qb3//wb97x-d

!N2O4+H
N2O4+H=HONO+NO2				1.52E+01  4.04    774 ! cbs-qb3//wb97x-d

!N2H4+NO2
N2H4+NO2=N2H4-NO2			3.37E+02  3.02   1089 ! cbs-qb3//wb97x-d
N2H3+HONO=N2H4-NO2			7.87E+10  1.00   2424 ! diff_molten_an
N2H4c+NO2a=N2H4-NO2			7.87E+10  1.00   2424 ! diff_molten_an
N2H4-NO2=N2H4-NO2-ii		5.51E+12  0.06   1829 ! cbs-qb3//wb97x-d
N2H3+HNO2=N2H4-NO2-ii		7.87E+10  1.00   2424 ! diff_molten_an

!N2H4+N2O4
N2H4+N2O4=NH2NHNO2+HONO		4.87E+02  2.41    862 ! cbs-qb3//wb97x-d
NH2NHNO2=HONO+t-N2H2		3.12E+12  1.06  11178 ! cbs-qb3//wb97x-d
NH2NHNO2=HONO+c-N2H2		4.88E+12  1.06  11805 ! cbs-qb3//wb97x-d
NH2NHNO2+N2O4=O2NNHNHNO2+HNO2	2.36E+01  2.91  19481 ! cbs-qb3//wb97x-d
O2NNHNHNO2=HO2NNHNNO2		1.04E+10  0.86  24424 ! cbs-qb3//wb97x-d
HO2NNHNNO2=HONO+c-HNN-NO2	1.69E+10  0.96   7600 ! cbs-qb3//wb97x-d
c-HNN-NO2=N2+HONO			9.16E+11  0.25    220 ! cbs-qb3//wb97x-d
NNH+NO2=c-HNN-NO2			7.87E+10  1.00   2424 ! diff_molten_an
NNH+NO2=t-HNN-NO2			7.87E+10  1.00   2424 ! diff_molten_an

N2H4+tN2O4=HNO3+NH2NHNO		7.87E+10  1.00   2424 ! diff_molten_an
NH2NHNO+N2O4=O2NNHNHNO+HONO	3.16E+01  3.05  21106 ! cbs-qb3//wb97x-d
O2NNHNHNO=HO2NNHNNO			4.16E+04  2.56  22527 ! cbs-qb3//wb97x-d
HO2NNHNNO=HONO+HNN-NO		1.96E+10  1.01  15214 ! cbs-qb3//wb97x-d
HNN-NO=HNO+N2				9.07E+10  0.66   1581 ! cbs-qb3//wb97x-d
HNO+NO2=NO+HONO				1.48E-05  5.26   1652 ! cbs-qb3//wb97x-d
HNO+NO2=NO+HNO2				1.05E+02  3.28   -372 ! cbs-qb3//wb97x-d

!N2H4+HONO
N2H4+HONO=NH2NHNO+H2O		2.29E+00  3.54  18479 ! cbs-qb3//wb97x-d

!N2H4+H
N2H4+H=N2H3+H2				1.13E+06  2.40    330 ! cbs-qb3//wb97x-d
N2H4+H=N2H5					1.68E+12  0.31   5191 ! cbs-qb3//wb97x-d
N2H5=>NH3+NH2				2.89E+04  2.86    544 ! cbs-qb3//wb97x-d

!N2H4+NH2
N2H4+NH2=N2H3+NH3			2.30E+00  3.75   1000 ! cbs-qb3//wb97x-d

!N2H3+N2O4
N2H3+N2O4=NO2+HONO+t-N2H2	7.87E+10  1.00   2424 ! diff_molten_an

!N2H3+NO2
N2H3+NO2=N2H3-NO2			7.87E+10  1.00   2424 ! diff_molten_an
t-N2H2+HONO=N2H3-NO2		7.87E+10  1.00   2424 ! diff_molten_an
c-N2H2+HONO=N2H3-NO2		7.87E+10  1.00   2424 ! diff_molten_an

!N2H3+H
!N2H3+H=N2H4				7.87E+10  1.00   2424 ! diff_molten_an

!N2H2+N2O4
c-N2H2+N2O4=HONO+HONO+N2	1.95E-09  6.60  17795 ! cbs-qb3//wb97x-d

!N2H2+NO2
t-N2H2+NO2=NNH+HONO			8.58E-03  4.51   2767 ! cbs-qb3//wb97x-d
t-N2H2+NO2=NNH+HNO2			4.90E-05  5.41    597 ! cbs-qb3//wb97x-d
c-N2H2+NO2=NNH+HONO			2.35E-15  8.56  -1882 ! cbs-qb3//wb97x-d
c-N2H2+NO2=NNH+HNO2			9.04E+01  3.23   -373 ! cbs-qb3//wb97x-d

!N2H2+H
t-N2H2+H=NNH+H2				7.87E+10  1.00   2424 ! diff_molten_an
c-N2H2+H=NNH+H2				7.87E+10  1.00   2424 ! diff_molten_an
t-N2H2+H=N2H3				7.87E+10  1.00   2424 ! diff_molten_an
c-N2H2+H=N2H3				7.87E+10  1.00   2424 ! diff_molten_an

!NNH+N2O4
NNH+N2O4=N2+HONO+NO2		1.21E+02  2.88  -1493 ! cbs-qb3//wb97x-d

!NNH
NNH=N2+H					2.44E+10  1.03   4469 ! cbs-qb3//wb97x-d

!HONO
HNO2+HNO2=HONO+HONO			1.79E+00  3.24   9916 ! cbs-qb3//wb97x-d
HONO+HONO=N2O3+H2O			6.72E+00  3.71   7158 ! cbs-qb3//wb97x-d
NO+NO2=N2O3					7.87E+10  1.00   2424 ! diff_molten_an

!N2H2
t-N2H2=c-N2H2				8.39E+10  0.86  47157 ! cbs-qb3//wb97x-d
t-N2H2+H2O+H2O=c-N2H2+H2O+H2O	5.82E-01  3.46  24912 ! cbs-qb3//wb97x-d
c-N2H2+c-N2H2=N2H4+N2		2.34E+01  2.75    419 ! cbs-qb3//wb97x-d
t-N2H2+c-N2H2=N2H4+N2		9.55E+02  2.29    701 ! cbs-qb3//wb97x-d

!HN3 decomposition
HN3+H=H2+N3					1.37E-02  4.74   -769 ! cbs-qb3//wb97x-d
N3+N3=N2+N2+N2				7.87E+10  1.00   2424 ! diff_molten_an
HN3+H=NH2+N2				2.44E-06  2.23   1963 ! cbs-qb3//wb97x-d
HN3=>NH(t)+N2				5.90E+13   0.0  30600 ! From Kajimoto et al.
NH(t)+HN3=N3+NH2			7.37E+07  1.40   8877 ! cbs-qb3//wb97x-d
H2O+NH(t)=OH+NH2			1.39E+08  1.89 28798  ! cbs-qb3//wb97x-d

!N3 NH2
HN3+OH=N3+H2O				7.87E+10  1.00   2424 ! diff_molten_an
HN3+NH2=N3+NH3				9.12E-01  3.81   -771 ! cbs-qb3//wb97x-d
!H2O+NH2=NH3+OH				2.32E+00  3.81  16811 ! cbs-qb3//wb97x-d
!HNO3+OH=H2O2+NO2			3.10E-03  5.00  22802 ! cbs-qb3//wb97x-d
HNO3+H=HONO+OH				7.87E+10  1.00   2424 ! diff_molten_an
NH3+H=NH2+H2				7.87E+10  1.00   2424 ! diff_molten_an
NH2+NH2=N2H4				7.87E+10  1.00   2424 ! diff_molten_an

! H2O2
OH+OH=H2O2					7.87E+10  1.00   2424 ! diff_molten_an
OH+H=H2O					7.87E+10  1.00   2424 ! diff_molten_an
H+H=H2						7.87E+10  1.00   2424 ! diff_molten_an

END
