!#Reaction Mechanism Pyridine LTO 2.0
!Experimental and kinetic study of pyridine oxidation under the fuel-lean condition in a jet-stirred reactor
!#Ling-Nan Wu, Zhen-Yu Tian*, Kai-Ru Jin, Zhi-Hao Zheng, Du Wang, Bing-Zhi Liu, Qiang Xu, Zhan-Dong Wang
!#tianzhenyu@iet.cn
!#Notice:
!#the Plog and Chebyshev rate expressions, only available for Chemkin(Java) version >4.0, Cantera version>2.0, Opensmoke or CHEMKIN-II with P-plog interpreter.!
!#some of lumped reaction from Polimi mechanism may increase the stiffness of the mechanism lead to the converge problem!
!#the chebyshev rate experssions may lead to the converge problem and should note their pressure and temperature range!
ELEMENTS
C  H  N  O  AR   HE  NE  XE  Kr
END
SPECIES
!-------------------- C0 species ----------------------------------------------------------------------
O2    O   H    H2    OH    H2O    N2    HO2    H2O2    AR    HE
C(S)  NE  Kr
!------------------- C1 species -----------------------------------------------------------------------
C     CH      CH*     CH2    CH2*  CH2(S)    CH3     CH4   CH3O2 CH3O2H
CO	  CO2	    CH2O	       HCO     CH2OH    CH3O    CH3OH    HOCHO   HOCH2O
HCOH  HOCO  OCHO  CH2OOH
HCOO
!------------------- C2 species -----------------------------------------------------------------------          
C2H        C2H4       C2H2      C2H6    C2H5      H2CC    C2H3
C2O        HCCO       CH2CO     CH3CO   CH3CHO    C2H3OH  C2H5O
CH2OCH     CH2OCH2    CH2CHO    HCCOH
C2H4OH     HCCHOH    CH2COH  CH3CHOH 
C2  HOCH2CH2OO  CH2CHOO  OCHCHO  OCHCO
O2CCHOO.
!------------------- C3 species ------------------------------------------------------------------------ 
C3H2       C3H3       pC3H4      aC3H4      aC3H5     CH3CCH2   CH3CHCH
C3H6       nC3H7      iC3H7      C3H8       C2H3CHO
C3H5O      C2H5OH     sC2H4OH    CH3CHCO    CH3COCH2     
iC3H5CHO   iC4H7O     
CH2CHC.O   C.HCHCHO
!------------------- C4 species ------------------------------------------------------------------------             
C4H       C4H2        nC4H3      iC4H3      C4H4       nC4H5     iC4H5     C4H5-2           
C4H612    C4H6-2      SAXC4H7    C4H7       iC4H7      iC4H7-1   C4H7-2    CH3CCHCH3 
C4H81     C4H82       iC4H8      pC4H9      sC4H9      iC4H9     tC4H9     
C4H10     iC4H10      H2C4O      C4H6
C4H7-1   
CHOCH2CH2CHO   CHOCH2CH2C.O     CH2CHCHCO                       
!------------------- C5 species ------------------------------------------------------------------------                     
C5H3      cC5H4       C5H4       lC5H5      C5H5       C5H6      lC5H7  
C5H3O     C5H5O24     C5H4O      C5H4OH     C5H5OH 
C5H5O13     C5H52      C5H2      CVA
C5H7 CHOCH2CH2C.HCHO 
!------------------- C6 species ------------------------------------------------------------------------  
A1        A1-         l-C6H4     o-C6H4      n-C6H5      fulvene    A1O       A1OH
C5H4CH3   O-C6H4O2    P-C6H4O2   P-OC6H5OJ   O-OC6H5OJ   P-C6H3O2   
OC6H4OH   C6H4OH      C6H2       C6H3 
cC6H7     lC6H7       A1OO       A1OOH       PC6H4CH3    cC7H7
C5H5CH2-2  C5H5CH2-3  C5H5CH2-1    C5H5CH3


!-----------------Nitrogenous species---------------------
  C5H5N C5H4N C5H5NO C5H4NO C5H4NO2 bNC4H4CO C2H2NCO C3H3ONCO
  PYRROLE PYRLNE PYRLYL ALLYLCN AC3H4CN C3H5CN C4H3NO2
  CH2CHCN CHCHCN 
  CHCCN C4H4NO2 C4H4CN
 NO2 NO3 HNO HONO H2NO HNOH
 NH3 NH2 NH N N2H2 NNH N2O
 HCN CN NCO HNCO HOCN HCNO C2N2 NCN CH3CN CH2CN H2CN NO HNC  

END


REACTIONS
! ********* PYRIDINE SUBSET ************
!
C5H5N = C5H4N+H                   310.45  3.67     94039!  From Pyridine LTO 2019 CNF by DFT calculations
C5H5N+H = C5H4N+H2                5.86E7  1.86   13204.7!  From Pyridine LTO 2019 CNF by DFT calculations
C5H5N+O2 = C5H4N+HO2              6.3E13  0.00     51000!  Alzueta
C5H5N+O = C5H4N+OH                9.8E6   2.17    9088.2!  From Pyridine LTO 2019 CNF by DFT calculations
C5H5N+O => C5H5NO                 6.0E12  0.00      5000!   
C5H5NO => C2H2+HCN+CH2CO          6.0E12  0.00      5000! 
C5H5NO => C5H5N+O                 1.0E14  0.00     15700! 
C5H5N+OH = C5H4N+H2O              2.06E3  3        801.3!  From Pyridine LTO 2019 CNF by DFT calculations
C5H5N+HO2 = C5H4N+H2O2            3.41E1  3.51   19664.3!  From Pyridine LTO 2019 CNF by DFT calculations
C5H4N+O2 = C5H4NO+O               5.64E3  2.44   15631.5!  From Pyridine LTO 2019 CNF by DFT calculations
C5H4N+O2 => C5H4NO2               5.0E12  0.00     13000! 
C5H4N+HO2 => C5H4NO+OH            3.0E12  0.00         0! 
C5H4NO2 => CO+HCN+CH2CHC.O        1.0E15  0.00     32000! 
C5H4NO = CO+PYRLYL                2.0E14  0.00     45000! 
C5H4NO => bNC4H4CO                5.0E15  0.00     35000! 
bNC4H4CO => C5H4NO                5.0E11  0.00      5000! 
bNC4H4CO => C2H2NCO+C2H2          1.0E15  0.00     41800! 
C2H2+C2H2NCO => bNC4H4CO          1.0E12  0.00      5000! 
C2H2NCO => NCO+C2H2               1.0E12  0.00     19200! 
NCO+C2H2 => C2H2NCO               2.5E11  0.00      5000! 
bNC4H4CO+O2 => C3H3ONCO+HCO       5.4E12  0.00         0! 
C3H3ONCO+HCO => bNC4H4CO+O2       5.0E16  0.00     99300! 

!****** PYRROLE SUBSET *********

PYRROLE = PYRLNE                     1.0E12  0.00    58000 ! 
PYRROLE = PYRLYL+H                   1.0E14  0.00    84000 ! 
PYRROLE+H = PYRLYL+H2                2.0E13  0.00     5000 ! 
PYRROLE = pC3H4+HCN                  1.1E14  0.00    77200 ! 
PYRROLE+O = PYRLYL+OH                1.3E12  0.00     2900 ! 
PYRROLE+OH = PYRLYL+H2O              9.0E8   1.00   -695.00! Pelucchi 2021 Energy&Fuels
PYRROLE+O2 = PYRLYL+HO2              5.0E13  0.00    45500 ! 
PYRROLE+HO2 = PYRLYL+H2O2            1.0E11  0.00    10000 !               
PYRLYL = C3H3+HCN                    7.4E11  0.00    43900 ! 
PYRLYL+H = pC3H4+HCN                 1.0E14  0.00    12000 ! 
PYRLYL+OH = pC3H4+HNCO               1.0E12  0.00        0 ! 
PYRLYL+O = pC3H4+NCO                 1.0E13  0.00     3000 ! 
PYRLYL+O2=>C4H4NO2                   5E+12   0.00    25000 ! 
C4H4NO2=>CH2CHC.O+HNCO               1E+15   0.00    32000 ! 
PYRLNE = pC3H4+HCN                   4.0E13  0.00    56000 ! 
PYRLNE => C3H5CN                     5.0E15  0.00    68000 ! 
C3H5CN => PYRLNE                     3.2E14  0.00   769000 ! 
PYRLNE => ALLYLCN                    5.0E15  0.00    68000 ! 
ALLYLCN => PYRLNE                    3.0E13  0.00    74600 ! 
PYRLNE = C2H2+CH3CN                  6.0E15  0.00    76000 ! 
PYRLNE = PYRLYL+H                    6.3E14  0.00    83400 ! 
PYRLNE+H = PYRLYL+H2                 6.0E14  0.00    12000 ! 
PYRLNE+O = PYRLYL+OH                 1.3E13  0.00     2900 ! 
PYRLNE+OH = PYRLYL+H2O               3.0E06  2.00    -1310 ! 
PYRLNE+O2 = PYRLYL+HO2               5.0E13  0.00    45500 ! 
PYRLNE+HO2 = PYRLYL+H2O2             1.0E12  0.00    10000 ! 
C3H5CN => pC3H4+HCN                  5.0E14  0.00    82000 ! 
pC3H4+HCN => C3H5CN                  1.7E13  0.00    44800 ! 
C3H5CN+H => AC3H4CN+H2               5.0E13  0.00     5000 ! 
AC3H4CN+H2 => C3H5CN+H               1.5E12  0.00    21600 ! 
C3H5CN+H => CH3+CH2CHCN              5.0E13  0.00     5000 ! 
CH3+CH2CHCN => C3H5CN+H              4.0E11  0.00    16900 ! 
C3H5CN+H => aC3H5+HCN                5.0E13  0.00     5000 ! 
aC3H5+HCN => C3H5CN+H                6.2E11  0.00    22900 ! 
C3H5CN+O => aC3H5+NCO                1.0E13  0.00     5000 ! 
C3H5CN+OH => aC3H5+HNCO              1.0E13  0.00     5000 ! 
ALLYLCN => pC3H4+HCN                 5.0E13  0.00    75000 ! 
pC3H4+HCN => ALLYLCN                 2.0E13  0.00    40100 ! 
ALLYLCN+H => AC3H4CN+H2              4.0E13  0.00     5000 ! 
AC3H4CN+H2 => ALLYLCN+H              1.3E13  0.00    23900 ! 
ALLYLCN+H => C2H4+CH2CN              4.0E13  0.00     5000 ! 
C2H4+CH2CN => ALLYLCN+H              6.0E12  0.00    27200 ! 
ALLYLCN+H => aC3H5+HCN               4.0E13  0.00     5000 ! 
aC3H5+HCN => ALLYLCN+H               5.5E12  0.00    25300 ! 
ALLYLCN => C2H3+CH2CN                2.0E16  0.00    83500 ! 
C2H3+CH2CN => ALLYLCN                1.0E13  0.00        0 !  
ALLYLCN+OH => AC3H4CN+H2O            1.0E13  0.00     5000 ! 
ALLYLCN+O => AC3H4CN+OH              1.0E13  0.00     5000 ! 
ALLYLCN+O2 => AC3H4CN+HO2            1.0E13  0.00     5000 ! 
AC3H4CN+H => ALLYLCN                 3.0E13  0.00        0 ! 
ALLYLCN => AC3H4CN+H                 3.7E14  0.00    85500 ! 
AC3H4CN+H => C3H5CN                  3.0E13  0.00        0 ! 
C3H5CN => AC3H4CN+H                  4.1E15  0.00    87900 ! 
AC3H4CN+H => pC3H4+HCN               1.0E13  0.00        0 ! 
AC3H4CN+O => pC3H4+NCO               1.0E13  0.00        0 ! 
!AC3H4CN+O => H3CCHCN+OH             1.0E13  0.00        0 ! 
AC3H4CN+OH => pC3H4+HNCO             1.0E13  0.00        0 !                   
CH2CHCN+H = CHCHCN+H2                2.44E9  1.415    5516 ! From Pyridine LTO 2019 CNF by DFT calculations
CH2CHCN+OH = CHCHCN+H2O              1.0E13  0.00     5000 !  
CH2CHCN+O = CHCHCN+OH                1.0E13  0.00     5000 ! 
CH2CHCN+O2 = CHCHCN+HO2              1.0E13  0.00     5000 ! 
CH2CHCN+HO2 = CHCHCN+H2O2            1.0E13  0.00     5000 !
CH2CHCN+H => HCN+C2H3                1.0E13  0.00     4000 ! JC Mackie
HCN+C2H3 => CH2CHCN+H                1.32E11 0.00     4400 ! JC Mackie
CH2CHCN+OH = HNCO+C2H3               1.0E13  0.00     5000 ! 
CH2CHCN+O = HNCO+C2H2                1.0E13  0.00     5000 ! 
CHCHCN+M = CHCCN+H+M                 8.0E15  0.00    40000 ! 
CHCHCN+OH = C2H2+HNCO                1.0E13  0.00        0 ! 
CHCHCN+O = C2H2+NCO                  1.0E13  0.00        0 ! 
!                    
! *** ADDING MALUMYA'S REACTIONS ***
!

AC3H4CN+CH4 => CH3+C3H5CN            4.6E11  0.00    26200 !
CH3+ALLYLCN => AC3H4CN+CH4           4.0E11  0.00     9000 !
AC3H4CN+CH4 => ALLYLCN+CH3           4.1E12  0.00    28600 !
CH3+CH2CHCN = CHCHCN+CH4             5.0E11  0.00    10000 !
CH3+CHCHCN => C3H5CN                 1.0E13  0.00        0 !
C3H5CN => CH3+CHCHCN                 2.6E16  0.00    92900 !
H+CH2CN = CH3CN                      5.0E12  0.00        0 !
AC3H4CN => CHCCN+CH3                 1.0E14  0.00    70000 !
CHCCN+CH3 => AC3H4CN                 9.0E12  0.00    25200 !
CH3CN+C2H3 = CH2CHCN+CH3             1.0E13  0.00     2000 !
CH3+CH3CN = CH2CN+CH4                5.0E11  0.00     7000 !
2 CH2CN = CH2CHCN+HCN                1.0E13  0.00     4000 !
CH3+PYRROLE = PYRLYL+CH4             5.0E11  0.00     7000 !
!
! *** CH2CHCN (acrylonitrile) reactions ***
!
CH2CHCN = HCN+C2H2                    8.9E11  0.0   68000 ! 
CH2CHCN =CHCCN+H2                     1.3E13  0.0   77000 ! 
CH2CHCN+CN = CHCHCN+HCN               7.9E05  2.3       0 !
!
! *** CHCHCN (acrylonitryl) reactions ***
!
CN+C2H2 = CHCHCN                      3.16E16 0.00     400! From JC MACKIE
CHCHCN+H = CHCCN+H2                   4.0E13  0.00      0 ! 
CHCHCN+H = HCN+C2H2                   3.1E13  0.00      0 ! 
CHCHCN+H = CH2CHCN                    1.0E12  0.00      0 ! 
CHCHCN+CN = CHCCN+HCN                 1.0E14  0.00      0 ! 
CHCHCN+CN = C2N2+C2H2                 3.1E13  0.00      0 ! 
CHCHCN+nC4H3 = CH2CHCN+C4H2           2.0E13  0.00      0 ! 
CHCHCN+CHCHCN = CHCCN+CH2CHCN         3.5E13  0.00      0 ! 
!
! *** C3H3O Subset ***
!
CH2CHC.O  =  C2H3+CO                   1.0E14   0.00  34000 !  
CH2CHC.O+O  =  C2H3+CO2                1.0E14   0.00      0 !   
CH2CHC.O+O2  = CH2CHO+CO2              5.4E20  -2.72   7000 !   
CH2CHC.O  =  C2H2+HCO                  5.0E14   0.00  24000 !   
  
! *** C3H4O Subset ***
!
C2H3CHO+H  =  CH2CHC.O+H2             4.0E13  0.00   4200 !   
C2H3CHO+O  =  CH2CHC.O+OH             7.2E12  0.00   1970 !   
C2H3CHO+O  =  CH2CO+HCO+H             5.0E07  1.76     76 !   
C2H3CHO+OH  =  CH2CHC.O+H2O           1.0E13  0.00      0 !   
C2H3CHO+O2  =  CH2CHC.O+HO2           3.0E13  0.00  36000 !

!
! *** C2HO4 Reactions ***
!
O2CCHOO.  =  HCOO+CO2                  3.0E13   0.00   4000 !   
!

  ! *****************************************************
  ! *   H/N/O subset                                    *
  ! *****************************************************
  !
H+NO+M=HNO+M                   4.0E20 -1.75     0 !  
    H2O/10/  O2/1.5/ H2/2/ CO2/3/ N2/1/
NO+O+M=NO2+M                   7.5E19 -1.41      0
  N2/1.7/   O2/1.5/  H2O/10/
OH+NO+M=HONO+M                 5.1E23 -2.51    -68
  H2O/5/
HO2+NO=NO2+OH                  2.1E12  0.00   -479
NO2+H=NO+OH                    8.4E13  0.0       0
NO2+O=NO+O2                    3.9E12  0.0    -238
NO2+O(+M)=NO3(+M)              1.3E13  0.0       0
    LOW/1.0E28  -4.08 2470./
   N2/1.5/ O2/1.5/  H2O/18.6/
NO2+NO2=NO+NO+O2               1.6E12  0.0   26123
NO2+NO2=NO3+NO                 9.6E09  0.73  20900
NO3+H=NO2+OH                   6.0E13  0.0       0
NO3+O=NO2+O2                   1.0E13  0.0       0
NO3+OH=NO2+HO2                 1.4E13  0.0       0
NO3+HO2=NO2+O2+OH              1.5E12  0.0       0
NO3+NO2=NO+NO2+O2              5.0E10  0.0    2940
HNO+H=H2+NO                    4.5E11  0.72    655
HNO+O=NO+OH                    1.0E13  0.0       0
HNO+OH=NO+H2O                  3.6E13  0.0       0
HNO+O2=HO2+NO                  2.0E12  0.0   25000 ! 
HNO+NO2=HONO+NO                6.0E11  0.0    2000
HNO+HNO=N2O+H2O                9.0E08  0.0    3100
HNO+NH2=NH3+NO                 3.63E6  1.63  -1252
H2NO+H=HNO+H2                  3.0E7   2.0    2000
H2NO+H=NH2+OH                  5.0E13  0.0       0
H2NO+O=HNO+OH                  3.0E7   2.0    2000
H2NO+O = NH2+O2                2.0E14   0        0
H2NO+OH=HNO+H2O                2.0E7   2.0    1000
H2NO+O2=HNO+HO2                3.0E12  0.0   25000 ! 
H2NO+NO=HNO+HNO                2.0E04  2.0   13000
H2NO+NO2=HNO+HONO              6.0E11  0.0    2000
HONO+H=H2+NO2                  1.2E13  0.0    7352
HONO+O=OH+NO2                  1.2E13  0.0    5961
HONO+OH=H2O+NO2                4.0E12  0.0       0
H2NO+M=HNOH+M                  1.1E29 -4.0   44000 ! 
  H2O/10/
H2NO+M=HNO+H+M                 2.8E24 -2.83  64915 ! 
  H2O/10/
H2NO+HO2=HNO+H2O2              2.9E04  2.69   1600 ! 
NH3+M = NH2+H+M                2.2E16   0    93470
NH3+H=NH2+H2                   6.4E05  2.39  10171
NH3+O=NH2+OH                   9.4E06  1.94   6460
NH3+OH=NH2+H2O                 2.0E06  2.04    566
NH3+HO2=NH2+H2O2               3.0E11  0.0   22000
NH2+H=NH+H2                    4.0E13  0.00   3650
NH2+O=HNO+H                    6.6E14 -0.50      0
NH2+O=NH+OH                    6.8E12  0.        0
NH2+OH=NH+H2O                  4.0E06  2.0    1000
NH2+HO2=H2NO+OH                5.0E13  0.0       0
NH2+HO2=NH3+O2                 1.0E13  0.0       0
NH2+NO=N2+H2O                  2.8E20 -2.654  1258 ! 
NH2+NO=NNH+OH                  2.3E10  0.425  -814 ! 
NH2+NO2=N2O+H2O                1.6E16 -1.44    268 ! 
NH2+NO2=H2NO+NO                6.5E16 -1.44    268 ! 
NH2+H2NO=NH3+HNO               3.0E12  0.0    1000
NH2+HONO=NH3+NO2               7.1E01  3.02  -4941
NH2+NH2=N2H2+H2                8.5E11  0.        0
NH2+NH=N2H2+H                  5.0E13  0.        0
NH2+N=N2+H+H                   7.2E13  0.        0
NH+H=N+H2                      3.0E13  0.        0
NH+O=NO+H                      9.2E13  0.        0
NH+OH=HNO+H                    2.0E13  0.        0 !
!5.0E13  0.        0 ! 
NH+OH=N+H2O                    5.0E11  0.50   2000
NH+O2=HNO+O                    4.6E05  2.     6500
NH+O2=NO+OH                    1.3E06  1.5     100
NH+NO=N2O+H                    2.9E14 -0.4       0
 DUP
NH+NO=N2O+H                   -2.2E13 -0.23      0
 DUP
NH+NO=N2+OH                    2.2E13 -0.23      0
NH+NO2=N2O+OH                  1.0E13  0.        0
NH+NH=N2+H+H                   2.5E13  0.        0
NH+N=N2+H                      3.0E13  0.        0
N+OH=NO+H                      3.8E13  0.        0
N+O2=NO+O                      6.4E09  1.     6280
N+NO=N2+O                      3.3E12  0.30      0
N2H2+M=NNH+H+M                 5.0E16  0.    50000
    H2O/15/ O2/2/ N2/2/ H2/2/
N2H2+H=NNH+H2                  5.0E13  0.     1000
N2H2+O=NH2+NO                  1.0E13  0.        0
N2H2+O=NNH+OH                  2.0E13  0.     1000
N2H2+OH=NNH+H2O                1.0E13  0.     1000
N2H2+NO=N2O+NH2                3.0E12  0.        0
N2H2+NH2=NH3+NNH               1.0E13  0.     1000
N2H2+NH=NNH+NH2                1.0E13  0.     1000
NNH=N2+H                       6.5E07  0.0       0 ! 
NNH+H=N2+H2                    1.0E14  0.        0
NNH+O=N2+OH                    8.0E13  0.        0
NNH+O=N2O+H                    1.0E14  0.        0
NNH+O=NH+NO                    5.0E13  0.        0
NNH+OH=N2+H2O                  5.0E13  0.        0
NNH+O2=N2+HO2                  2.0E14  0.        0
NNH+O2=N2+O2+H                 5.0E13  0.        0
NNH+NO=N2+HNO                  5.0E13  0.        0
NNH+NH2=N2+NH3                 5.0E13  0.        0
NNH+NH=N2+NH2                  5.0E13  0.        0
N2O+M=N2+O+M                   4.0E14  0.    56100
 N2/1.7/   O2/1.4/ H2O/12/ CO/1.5/  CO2/3/
N2O+H=N2+OH                    3.3E10  0.     4729
 DUP
N2O+H=N2+OH                    4.4E14  0.    19254
 DUP
N2O+O=NO+NO                    6.6E13  0.    26630
N2O+O=N2+O2                    1.0E14  0.    28000
N2O+OH=N2+HO2                  1.3E-2  4.72  36561
N2O+OH=HNO+NO                  1.2E-4  4.33  25081
N2O+NO=NO2+N2                  5.3E05  2.23  46281
  !
  ! *****************************************************
  ! *  cyanide subset                                   *
  ! *****************************************************
  !
CN+H2=HCN+H                    3.0E05  2.45   2237
HCN+O=NCO+H                    1.4E04  2.64   4980
HCN+O=NH+CO                    3.5E03  2.64   4980
HCN+O=CN+OH                    2.7E09  1.58  29200
HCN+OH = CN+H2O                3.9E06  1.83  10300
HCN+OH=HOCN+H                  5.9E04  2.40  12500
HCN+OH=HNCO+H                  2.0E-3  4.     1000
HCN+OH=NH2+CO                  7.8E-4  4.     4000
HCN+CN=C2N2+H                  1.5E07  1.71   1530
CN+O=CO+N                      7.7E13  0.        0
CN+OH=NCO+H                    4.0E13  0.        0
CN+O2=NCO+O                    7.5E12  0.     -389
CN+CO2=NCO+CO                  3.7E06  2.16  26884
CN+NO2=NCO+NO                  5.3E15 -0.752   344
CN+NO2=CO+N2O                  4.9E14 -0.752   344
CN+NO2=N2+CO2                  3.7E14 -0.752   344
CN+HNO=HCN+NO                  1.8E13  0.00      0
CN+HONO=HCN+NO2                1.2E13  0.00      0
CN+N2O=NCN+NO                  3.9E03  2.6    3696
CN+HNCO=HCN+NCO                1.5E13  0.        0
CN+NCO=NCN+CO                  1.8E13  0.        0
HNCO+M=NH+CO+M                 1.1E16  0.    86000
 N2/1.7/   O2/1.4/ H2O/12/ CO/1.5/  CO2/3/        ! est above
HNCO+H=NH2+CO                  2.2E07  1.7    3800
HNCO+O=HNO+CO                  1.5E08  1.57  44012
HNCO+O=NH+CO2                  9.8E7   1.41   8524
HNCO+O=NCO+OH                  2.2E6   2.11  11425
HNCO+OH=NCO+H2O                6.4E05  2.     2563
HNCO+HO2=NCO+H2O2              3.0E11  0.    22000
HNCO+O2=HNO+CO2                1.0E12  0.    35000
HNCO+NH2=NH3+NCO               5.0E12  0.     6200
HNCO+NH=NH2+NCO                3.0E13  0.    23700
HOCN+H=NCO+H2                  2.0E07  2.     2000
HOCN+O=NCO+OH                  1.5E04  2.64   4000
HOCN+OH=NCO+H2O                6.4E05  2.     2563
HCNO+H=HCN+OH                  1.0E14  0     12000
HCNO+O=HCO+NO                  2.0E14  0.        0
HCNO+OH=CH2O+NO                4.0E13  0.        0
NCO+M=N+CO+M                   3.1E16 -0.50  48000
NCO+H=NH+CO                    5.0E13  0.        0
NCO+O=NO+CO                    4.7E13  0.        0
NCO+OH=NO+HCO                  5.0E12  0.    15000
NCO+O2=NO+CO2                  2.0E12  0.    20000
NCO+H2=HNCO+H                  7.6E02  3.     4000
NCO+HCO=HNCO+CO                3.6E13  0.        0
NCO+NO=N2O+CO                  6.2E17 -1.73    763
NCO+NO=N2+CO2                  7.8E17 -1.73    763
NCO+NO2=CO+NO+NO               2.5E11  0.     -707
NCO+NO2=CO2+N2O                3.0E12  0.     -707
NCO+HNO=HNCO+NO                1.8E13  0.        0
NCO+HONO=HNCO+NO2              3.6E12  0.        0
NCO+N=N2+CO                    2.0E13  0.        0
NCO+NCO=N2+CO+CO               1.8E13  0.        0
C2N2+O=NCO+CN                  4.6E12  0.     8880
C2N2+OH=HOCN+CN                1.9E11  0.     2900
!!NCN+O=CN+NO                    1.0E14  0.        0
!!NCN+OH=HCN+NO                  5.0E13  0.        0
!!NCN+H=HCN+N                    1.0E14  0.        0
!!NCN+O2=NO+NCO                  1.0E13  0.        0
H+CH3CN=HCN+CH3                4.0E7   2.     2000    
H+CH3CN=CH2CN+H2               3.0E7   2.     1000
O+CH3CN=NCO+CH3                1.5E4   2.64   4980
OH+CH3CN=CH2CN+H2O             2.0E7   2.     2000
CH2CN+O=CH2O+CN                1.0E14    0.   0.    
CN+CH2OH=CH2CN+OH              5.0E13  0.        0
H2CN+M=HCN+H+M                 3.0E14  0.    22000
  !
  ! *****************************************************
  ! *  subset for CxHyOz+nitrogen species reactions     *
  ! *****************************************************
  !
CO+NO2 = CO2+NO                9.0E13  0.    33779
CO+N2O=N2+CO2                  3.2E11  0.    20237
!CO2+N=NO+CO                    1.9E11  0.     3400
N+CO2=NO+CO                    1.0E14  0.    30000
!2.0E12  0.    20000 !28/4 (Fon98)
CH2O+NCO=HNCO+HCO              6.0E12  0.        0
CH2O+NO2 = HCO+HONO            8.0E02  2.77  13730
HCO+NO=HNO+CO                  7.2E12  0.        0
HCO+NO2 = CO+HONO              1.2E23 -3.29   2355
HCO+NO2 = H+CO2+NO             8.4E15 -0.75   1930
HCO+HNO=CH2O+NO                6.0E11  0.     2000
CH4+CN=CH3+HCN                 6.2E04  2.64   -437
NCO+CH4 = CH3+HNCO             9.8E12  0.00   8120
CH3+NO=HCN+H2O                 1.5E-1  3.523  3950
CH3+NO=H2CN+OH                 1.5E-1  3.523  3950
CH3+NO2=CH3O+NO                1.4E13  0.        0
CH3+N=H2CN+H                   7.1E13  0.        0
CH3+CN=CH2CN+H                 1.0E14  0.        0
CH3+HOCN=CH3CN+OH              5.0E12  0.     2000
CH2+NO=HCN+OH                  2.2E12  0.     -378
CH2+NO=HCNO+H                  1.3E12  0.     -378
CH2+NO2=CH2O+NO                5.9E13  0.        0
CH2+N=HCN+H                    5.0E13  0.        0
CH2+N2=HCN+NH                  1.0E13  0.    74000
H2CN+N=N2+CH2                  2.0E13  0.        0
CH2(S)+NO=HCN+OH               2.0E13  0.        0
CH2(S)+NO=CH2+NO               1.0E14  0.        0
CH2(S)+HCN=CH3+CN              5.0E13  0.        0
CH+NO2=HCO+NO                  1.0E14  0.        0
CH+NO = HCN+O                  4.8E13  0.00      0
CH+NO = HCO+N                  3.4E13  0.00      0
CH+NO = NCO+H                  1.9E13  0.00      0
CH+N=CN+H                      1.3E13  0.        0
CH+N2=HCN+N                    3.7E07  1.42  20723
CH+N2O=HCN+NO                  1.9E13  0.     -511
C+NO=CN+O                      2.0E13  0.        0
C+NO=CO+N                      2.8E13  0.        0
C+N2=CN+N                      6.3E13  0.    46019
C+N2O=CN+NO                    5.1E12  0.        0
C2H6+CN=C2H5+HCN               1.2E05  2.77  -1788
C2H6+NCO = C2H5+HNCO           1.5E-9  6.89  -2910
C2H4+CN = C2H3+HCN             5.9E14 -0.24      0
C2H3+NO=C2H2+HNO               1.0E12  0.     1000
C2H3+N=HCN+CH2                 2.0E13  0.        0
C2H2+NCO = HCCO+HCN            1.4E12  0.00   1815
C2H+NO=CN+HCO                  2.1E13  0.        0
CH2CO+CN=HCCO+HCN              2.0E13  0.        0
HCCO+NO=HCNO+CO                7.2E12  0.        0
HCCO+NO=HCN+CO2                1.6E13  0.        0
HCCO+NO2=HCNO+CO2              1.6E13  0.        0
HCCO+N=HCN+CO                  5.0E13  0.        0
HCN+M = HNC+M                        1.6E26  -3.230   54900 ! 
 AR/0.7/ H2O/7/  CO2/2/                                !
! Dean AM Bozzelli JW (Gardiner WC) Gas Phase Combustion Chemistry, Springer 2000
! P Glarborg P Marshall  (mod Ea)
HNC+H = HCN+H                        7.8E13   0.000    3600 ! 
! Sumathi R Nguyen MT JPCA 102:8013-8020 1998 (fit to reported data)
! Typo in listing (E=0) in P. Glarborg, J.A. Miller, B. Ruscic, S.J. Klippenstein, Prog. Energy Combust. Sci. 67 (2018) 31-68 !
!   
HNC+O = NH+CO                        4.6E12   0.000    2200 ! 
! Dean AM Bozzelli JW (Gardiner WC) Gas Phase Combustion Chemistry, Springer 2000
!
HNC+OH = HNCO+H                      3.6E12   0.000    -479 ! 
! Bunkan et al. (2014) !
! Glarborg and Marshall (2016)
!
HNC+OH = CN+H2O                      3.0E02   3.160   10600 ! 
! Bunkan et al. (2014) !
! Glarborg and Marshall (2016)


      

                                                                                                                                              
!************************************** Reactions of benzene(A1) and fulvene **********************************************                                                                              
A1-+H(+M)=A1(+M)                             1.00E+14    0.0         0.0      !1997 Wang&Frenklach RRKM      
                                       LOW / 6.6E+75   -16.30     7000.0/      
                                       TROE/ 1.0   0.1   584.9    6113.0/      
                                   H2/2.0/ H2O/6.0/ CH4/2.0/ CO/1.5/ CO2/2.0/ C2H6/3.0/                                                                                                                                                           
A1+H=lC6H7                                   1.22E+22   -1.87     31200.0     !Pitz2001 
!A1+H=cC6H7                                   1.20E+125  -33.66    55212.0     !Pitz2001
!      PLOG /   1.0                           1.20E+125  -33.66    55212.0/     
!      PLOG /   3.0                           4.98E+128  -34.47    59329.0/     
!      PLOG /  10.0                           3.27E+130  -34.75    62718.0/     
!      PLOG /  30.0                           2.40E+129  -34.20    64174.0/     
!      PLOG / 100.0                           3.33E+124  -32.58    63531.0/     
cC6H7+O2=A1+HO2                              7.90E+11    0.00     9900.0      !Bounaceur2005
!cC6H7+H=A1+H2                                3.30E+12    0.00        0.0      !Bounaceur2005
!cC6H7+OH=A1+H2O                              1.00E+13    0.00        0.0      !Bounaceur2005
cC6H7+H=C4H6+C2H2                            6.50E+13    0.0         0.0      !Pitz2001
cC6H7=lC6H7                                  3.00E+13    0.0     46400.0      !Pitz2001
lC6H7=nC4H5+C2H2                             5.50E+14    0.0     41000.0      !Pitz2001
iC4H5+C2H2=lC6H7                              1.1E31     -9.210    19403       !#HANCOO09#  manuscript,for 500K-2000K
PLOG /0.1                                    1.1E31     -9.21     19403/      !Peter's suggestion
PLOG /1.                                     4.3E39     -9.12     19210/
PLOG /10.                                    6.7E51     -11.97    29666/
PLOG /10.                                    3.6E51     -28.03    -70552/
PLOG /100.                                   4.0E42     -8.76     28819/
PLOG /100.                                   3.4E41     -25.42    -77676/

C5H5CH2-2=cC6H7    			     1.00e+13     -1.42       26290
C5H5CH2-3=cC6H7   			     1.04e+14     -1.57       29760
cC6H7=A1+H     				     1.16e+54    -12.53       44850
cC6H7=fulvene+H    			     2.47e+40     -8.83       67100
H+cC6H7=H2+A1 				     1.1401172e+13   -0.07100   -2.17   !Disproportionation estimate:   
O+cC6H7=OH+A1 				     3.6200000e+12   0.00000   0.00000   !Disproportionation estimate:   
OH+cC6H7=H2O+A1 			     1.1401172e+13   -0.07100   -2.17   !Disproportionation 
HO2+cC6H7=H2O2+A1 			     1.1401172e+13   -0.07100   -2.17   !Disproportionation 
HCO+cC6H7=CH2O+A1 			     1.1401172e+13   -0.07100   -2.17   !Disproportionation 
CH3+cC6H7=CH4+A1 			     1.1401172e+13   -0.07100   -2.17





!************************************** Reactions of C5H5CH3(Methylcyclopentadiene)****************************************************************
C5H5+CH3=>C5H5CH3                               9.10E+109	-29.19  	41906      !Sandeep Sharma and William H. Green J. Phys. Chem. A 2009, 113, 8871-8882
   PLOG/ 0.01                                   9.10E+109	-29.19  	41906/  
   PLOG/ 1.00                                   3.06E+105	-27.05  	47952/ 
   PLOG/ 10.0                                   2.38E+94	-23.52  	45184/
   PLOG/ 100                                    1.09E+70	-16.33  	32296/   
C5H5+CH3=>fulvene+H2                            9.25E+01	 2.19 	   8815      !Sandeep Sharma and William H. Green J. Phys. Chem. A 2009, 113, 8871-8882
   PLOG/ 0.01                                   9.25E+01	 2.19 	   8815 /   
   PLOG/ 1.00                                   1.14E+15	-1.40 	  20266 /
   PLOG/ 10.0                                   3.62E+31	-5.90 	  35631 /
   PLOG/ 100                                    3.38E+43	-9.05 	  49742 /   
C5H5CH3=>C5H5+CH3                               4.49E+77	-19.26  	89496      !Sandeep Sharma and William H. Green J. Phys. Chem. A 2009, 113, 8871-8882
   PLOG/ 0.01                                   4.49E+77	-19.26  	89496/      
   PLOG/ 1.00                                   2.01E+89	-21.78  	105380/     
   PLOG/ 10.0                                   6.89E+84	-20.17  	106554/     
   PLOG/ 100                                    4.46E+71	-16.16  	100961/     
C5H5CH3=>fulvene+H2                             3.38E+77	-21.53 	  96791      !Sandeep Sharma and William H. Green J. Phys. Chem. A 2009, 113, 8871-8882
   PLOG/ 0.01                                   3.38E+77	-21.53 	  96791/  
   PLOG/ 1.00                                   2.04E+94	-25.05 	  118602/ 
   PLOG/ 10.0                                   1.05E+97	-25.23 	  126838/ 
   PLOG/ 100                                    3.85E+84	-21.21 	  124346/ 
C5H5+CH3=>C5H4CH3+H                             3.03E+15	-0.58	    10871      !Sandeep Sharma and William H. Green J. Phys. Chem. A 2009, 113, 8871-8882 
   PLOG/ 0.01                                   3.03E+15	-0.58	    10871/     ! /4 
   PLOG/ 1.00                                   1.23E+31	-4.85	    24769/     ! /4  
   PLOG/ 10.0                                   3.23E+46	-9.02	    39791/     ! /4   
   PLOG/ 100                                    1.49E+56	-11.53  	52592/     ! /4  
C5H5CH3=>C5H4CH3+H                              2.35E+80	-20.72	  95019      !Sandeep Sharma and William H. Green J. Phys. Chem. A 2009, 113, 8871-8882
   PLOG/ 0.01                                   2.35E+80	-20.72	  95019/  
   PLOG/ 1.00                                   1.74E+97	-24.38	  116128/ 
   PLOG/ 10.0                                   5.77E+97	-24.00	  122296/ 
   PLOG/ 100                                    1.75E+87	-20.60	  120401/ 
C5H5+CH3=>C5H5CH2-2+H                           7.49E+13	-0.30	    11640      !Sandeep Sharma and William H. Green J. Phys. Chem. A 2009, 113, 8871-8882
   PLOG/ 0.01                                   7.49E+13	-0.30	    11640/   
   PLOG/ 1.00                                   7.93E+27	-4.14	    24060/   
   PLOG/ 10.0                                   7.18E+44	-8.75	    40084/   
   PLOG/ 100                                    1.31E+53	-10.86	  51760/ 
C5H5+CH3=>C5H5CH2-3+H                           2.18E+14	-0.40	    17024      !Sandeep Sharma and William H. Green J. Phys. Chem. A 2009, 113, 8871-8882
   PLOG/ 0.01                                   2.18E+14	-0.40	    17024/   
   PLOG/ 1.00                                   1.31E+23	-2.81	    24726/   
   PLOG/ 10.0                                   6.08E+38	-7.08	    39076/   
   PLOG/ 100                                    1.81E+52	-10.67	  54105/ 
C5H5+CH3=>C5H5CH2-1+H                           8.13E+25	-3.51	    41018      !Sandeep Sharma and William H. Green J. Phys. Chem. A 2009, 113, 8871-8882
   PLOG/ 0.01                                   8.13E+25	-3.51	    41018/ 
   PLOG/ 1.00                                   3.83E+26	-3.69	    41579/ 
   PLOG/ 10.0                                   1.16E+33	-5.47	    47110/ 
   PLOG/ 100                                    1.03E+48	-9.54	    61181/ 
C5H5CH3=>C5H5CH2-2+H                            1.38E+96	-24.49	  116744     !Sandeep Sharma and William H. Green J. Phys. Chem. A 2009, 113, 8871-8882
   PLOG/ 1.00                                   1.38E+96	-24.49	  116744/ 
   PLOG/ 10.0                                   1.54E+98	-24.53	  124128/ 
   PLOG/ 100                                    3.13E+86	-20.76	  121667/ 
C5H5CH3=>C5H5CH2-3+H                            1.61E+100	-25.89	  121934     !Sandeep Sharma and William H. Green J. Phys. Chem. A 2009, 113, 8871-8882
   PLOG/ 1.00                                   1.61E+100	-25.89	  121934/ 
   PLOG/ 10.0                                   2.05E+103	-26.14	  130620/ 
   PLOG/ 100                                    7.82E+93	-22.94	  130454/                               
C5H5CH3=>C5H5CH2-1+H                            9.33E+109	-29.66	  135070     !Sandeep Sharma and William H. Green J. Phys. Chem. A 2009, 113, 8871-8882
   PLOG/ 1.00                                   9.33E+109	-29.66	  135070/ 
   PLOG/ 10.0                                   1.07E+116	-30.36	  147389/ 
   PLOG/ 100                                    1.21E+114	-28.95	  154902/ 
!C5H5CH2-2=fulvene+H                             1.35e+58  -13.11    73890      !Polimi V2012 
!C5H5CH2-2=A1+H                                  9.25e+43  -9.19115 55756.8     !Polimi V2012
C5H5CH3+H=C5H5CH2-2+H2                          1.30e+06   2.38    2800.00     !Polimi V2012
!C5H5CH2-1=C5H5CH2-2                             1.69e+30  -5.9432  21537.5     !Polimi V2012
!C5H5CH2-2=C5H5CH2-3                             1.08e+41  -8.73397 44399       !Polimi V2012
!C5H5CH2-3=fulvene+H                             3.67e+43  -9.19    57330       !Polimi V2012
!C5H5CH2-1=C5H5CH2-3                             9.23e+27  -5.12362 28314.7     !Polimi V2012
!C5H5CH2-3=A1+H                                  1.38e+46  -9.72349 57338       !Polimi V2012
!C5H5CH2-1=fulvene+H                             1.07e+29  -5.32    32810       !Polimi V2012
!C5H5CH2-1=A1+H                                  1.98e+31  -6.06562 20629.6     !Polimi V2012


!--------from Sharma--------------
H+C5H5CH2-1=H2+fulvene                         3.2619458e+12   -0.08875   -2.71   !Disproportionation 
O+C5H5CH2-1=OH+fulvene                         6.0300000e+12   0.00000   0.00000   !Disproportionation estimate:   OH+C5H5CH2-1=H2O+fulvene                       3.2619458e+12   -0.08875   -2.71   !Disproportionation 
HO2+C5H5CH2-1=H2O2+fulvene                     3.2619458e+12   -0.08875   -2.71   !Disproportionation 
CH3+C5H5CH2-1=CH4+fulvene                      3.2619458e+12   -0.08875   -2.71
C5H5CH2-2=fulvene+H                            1.93e+90    -22.28       92960
C5H5CH2-2=A1+H                                 9.48e+71    -17.24       72920
C5H5CH2-2=C5H5CH2-3                            1.67e+67    -16.33       59920
C5H5CH2-3=fulvene+H                            2.01e+55    -12.33       67050
C5H5CH2-3=A1+H                                 1.90e+67    -15.79       70100
H+C5H5CH2-3=H2+fulvene                         1.1401172e+13   -0.07100   -2.17   !Disproportionation 
O+C5H5CH2-3=OH+fulvene                         3.6200000e+12   0.00000   0.00000   !Disproportionation estimate:   
OH+C5H5CH2-3=H2O+fulvene                       1.1401172e+13   -0.07100   -2.17   !Disproportionation 
HO2+C5H5CH2-3=H2O2+fulvene                     1.1401172e+13   -0.07100   -2.17   !Disproportionation


C5H4CH3+O2=HO2+fulvene	                        4.82E+11	0.0	     0.0         !Polimi V2012 
C5H5CH3+H=C5H4CH3+H2                            7.2E+13     0        3500.0     !EST 
C5H5CH3+OH=C5H4CH3+H2O                          3.08E+06    2.0         0.0     !EST 
H+C5H5CH3=>CH3+C5H6                             1.500E+13   0.0    2000.0       !Polimi V2012
O2+C5H5CH3=>HO2+A1+H                            1.704E+07   2.0    38570.96     !Polimi V2012
H+C5H5CH3=>H2+A1+H                              2.407E+07   2.0     2663.07     !Polimi V2012 
OH+C5H5CH3=>H2O+A1+H                            3.994E+06   2.0    -3152.53     !Polimi V2012 
O+C5H5CH3=>OH+A1+H                              1.353E+07   2.0     1356.53     !Polimi V2012 
HO2+C5H5CH3=>H2O2+A1+H                          5.388E+05   2.0    10318.80     !Polimi V2012 
HCO+C5H5CH3=>CH2O+A1+H                          1.263E+06   2.0    10777.87     !Polimi V2012 
CH3+C5H5CH3=>CH4+A1+H                           3.903E+05   2.0     3544.16     !Polimi V2012 
C2H5+C5H5CH3=>C2H6+A1+H                         2.298E+05   2.0     6224.33     !Polimi V2012     
!************************************** Reactions of C5H5(1,3-Cyclopentadienyl) and C5H6(1,3-cyclopentadiene) ******************************************************************************************
C3H3+C2H2=>C5H5                                 6.17E+66  -15.7     47729       !L. V. Moskaleva, M. C. Lin 1999       
   PLOG/ 0.132                                  6.17E+66  -15.7     47729/      !L. V. Moskaleva, M. C. Lin 1999        
   PLOG/ 1.000                                  6.87E+55  -12.5     42000/      !L. V. Moskaleva, M. C. Lin 1999       
   PLOG/ 10.00                                  1.13E+43  -8.80     34983/      !L. V. Moskaleva, M. C. Lin 1999          
C5H5=>C3H3+C2H2                                 2.79E+79 -18.3      130768      !L. V. Moskaleva, M. C. Lin 1999      
   PLOG/ 0.132                                  2.79E+79 -18.3      130768/     !L. V. Moskaleva, M. C. Lin 1999       
   PLOG/ 1.000                                  1.98E+68 -15.0      124824/     !L. V. Moskaleva, M. C. Lin 1999  
   PLOG/ 10.00                                  5.70E+54 -11.10     116874/     !L. V. Moskaleva, M. C. Lin 1999               
C5H5=lC5H5                                      2.25E+108 -28.2     127755      !L. V. Moskaleva, M. C. Lin 1999      
   PLOG/ 0.132                                  2.25E+108 -28.2     127755/     !L. V. Moskaleva, M. C. Lin 1999       
   PLOG/ 1.000                                  1.21E+109 -28.1     130355/     !L. V. Moskaleva, M. C. Lin 1999        
   PLOG/ 10.00                                  2.08E+112 -28.6     136922/     !L. V. Moskaleva, M. C. Lin 1999       
C5H5=C5H52                                      5.17E+80  -20.4     96136       !L. V. Moskaleva, M. C. Lin 1999        
   PLOG/ 0.132                                  5.17E+80  -20.4     96136/      !L. V. Moskaleva, M. C. Lin 1999                           
   PLOG/ 1.000                                  5.92E+78  -19.5     96640/      !L. V. Moskaleva, M. C. Lin 1999       
   PLOG/ 10.00                                  1.32E+78  -19.0     99133/      !L. V. Moskaleva, M. C. Lin 1999          
C3H3+C2H2=>lC5H5                                6.87E+71  -18.2     45334       !L. V. Moskaleva, M. C. Lin 1999        
   PLOG/ 0.132                                  6.87E+71  -18.2     45334/      !L. V. Moskaleva, M. C. Lin 1999        
   PLOG/ 1.000                                  4.11E+72  -18.2     45411/      !L. V. Moskaleva, M. C. Lin 1999       
   PLOG/ 10.00                                  1.55E+77  -19.1     49598/      !L. V. Moskaleva, M. C. Lin 1999         
lC5H5=>C3H3+C2H2                                3.12E+82  -20.6     68862       !L. V. Moskaleva, M. C. Lin 1999       
   PLOG/ 0.132                                  3.12E+82  -20.6     68862/      !L. V. Moskaleva, M. C. Lin 1999        
   PLOG/ 1.000                                  1.95E+83  -20.6     68951/      !L. V. Moskaleva, M. C. Lin 1999        
   PLOG/ 10.00                                  5.61E+87  -21.5     73148/      !L. V. Moskaleva, M. C. Lin 1999       
C3H3+C2H2=>C5H52                                1.34E+68  -16.9     51542       !L. V. Moskaleva, M. C. Lin 1999        
   PLOG/ 0.132                                  1.34E+68  -16.9     51542/      !L. V. Moskaleva, M. C. Lin 1999        
   PLOG/ 1.000                                  2.70E+53  -12.6     41445/      !L. V. Moskaleva, M. C. Lin 1999        
   PLOG/ 10.00                                  1.81E+35  -7.6      76409/      !L. V. Moskaleva, M. C. Lin 1999        
C5H52=>C3H3+C2H2                                3.40E+80  -19.2     102213      !L. V. Moskaleva, M. C. Lin 1999        
   PLOG/ 0.132                                  3.40E+80  -19.2     102213/     !L. V. Moskaleva, M. C. Lin 1999        
   PLOG/ 1.000                                  7.48E+65  -15.0     92200/      !L. V. Moskaleva, M. C. Lin 1999        
   PLOG/ 10.00                                  4.57E+47  -9.9      51542/      !L. V. Moskaleva, M. C. Lin 1999       
C5H5+H(+M)=C5H6(+M)                             1.000E+14   0.000       0.00    !92-EMD-BRE, est., 94-FRA-HER   
                                         LOW  / 4.400E+80 -18.280    12994.0/   !96-DAV-WAN, 97-WAN-FRE
                                         TROE / 0.068 400.7 4135.8 5501.9   /
                                      H2/2.0/ H2O/6.0/ CH4/2.0/ CO/1.5/ CO2/2.0/                                                    
C5H6(+M)= aC3H4+C2H2(+M)                         3.8E+17    0.0      1.04E+05    !Mackie et al. 2001 PCCP              
                                           LOW /1.00E+98 -22.25     126321.5/
                                 TROE /1.440547E-01  5.357622E+00  3.283766E+03  6.710101E+09/
                                    CO /1.5/ CO2 /2.0/ H2O /6.0/ H2 /2.0/ CH4 /2.0/
C5H6+H=C5H5+H2                                   7.2E+13     0        3500.0     !Better for C5H6 flow reactor pyrolysis
C5H6+H=C2H2+aC3H5                                7.74E+36   -6.2    32890.0      !zhong & bozzeli j phys chem a 102  ! sensitive reaction    better for C5H6 flow reactor pyrolysis   
C5H6+C2H3=C5H5+C2H4                              6.00E+12    0.0         0.0     !2001 Bacskay&Mackie 6.00E+12  
C5H6+CH3=C5H5+CH4                                0.18        4.0      0.0        !zhong & bozzeli j phys chem a 102: 3537 1998      
aC3H5+C2H2=lC5H7                                 3.0e+11     0.0     6883.4      !ziegler et al. j. anal.apply.pyrolysis 73 212-230 (2005)        
C5H6+H=lC5H7                                     2.4e+73    -17.85    31500.0    !                                       
C5H6+O=C5H5+OH                                   4.77E+04    2.7      1106.0     !1998 Zhong&Bozzelli Est.
C5H6+OH=C5H5+H2O                                 3.08E+06    2.0         0.0     !1998 Zhong&Bozzelli Est.
C5H6+HO2=C5H5+H2O2                               1.1E+4      2.6     12900.0     !Zhong & Bozzeli J PHYS CHEM A 102: 3537 1998
C5H6+O2=C5H5+HO2                                 4.0E+13     0       37150.0     !Zhong & Bozzeli J PHYS CHEM A 102: 3537 1998       
C5H6+O=nC4H5+CO+H                                8.70E+51  -11.1     33240.0     !1998 Zhong&Bozzelli
C5H6+HCO=C5H5+CH2O                               1.08E+8     1.9     16000.0     !Zhong & Bozzeli J PHYS CHEM A 102: 3537 1998
OH+C5H6=>HCO+C4H6                                3.00E+12    0.0       0.0       !Polimi  8.00E+12   sensitive  
C5H6+O=>CO+C4H6                                  1.00E+13    0.0       0.0       !Polimi  
C5H6+O=>C2H4+C2H2+CO                             3.890e+08    1.360    886.71    !Banquant 2012 20130423 nignt
C5H6+OH=>C2H4+C2H2+HCO                           3.750e+36   -7.800   7060.23    !Banquant 2012 20130423 nignt 
C5H6+O=>CH2CO+aC3H4                              3.00E+12    0.00       0.0      !EST 20131022
C5H6+O=>CH2CO+pC3H4                              3.00E+12    0.00       0.0      !EST 20131022 
lC5H5+H=C5H4+H2                                  1.81E+12    0.0         0.0     !1986 Tsang&Hampson C2H5+H in 2002 Richter&Howard      
lC5H5+OH=C5H4+H2O                                2.41E+13    0.0         0.0     !1986 Tsang&Hampson C2H5+OH in 2002 Richter&Howard     
lC5H5+CH3=C5H4+CH4                               1.95E+13   -0.50        0.0     !1986 Tsang&Hampson C2H5+CH3 in 2002 Richter&Howard 
aC3H5+C2H3=lC5H7+H                               1.00E+13    0.0         0.0     !USC Mech II Est.
lC5H7+O=C2H3CHO+C2H3                             5.00E+13    0.0         0.0     !USC Mech II Est.
C5H5+aC3H4=A1+C2H3                               2E+10       0           0       !EST
C5H5+pC3H4=A1+C2H3                               2E+10       0           0       !EST 

! *** C5H6 Reactions from Alzueta***
!
 
C5H6+H  =  C5H7                        2.4E73 -17.85 31500 ! Alzueta     
C5H6+C2H3  =  A1+CH3                   2.1E67 -16.08 42460 ! Alzueta  
 
C5H6+C4H5-2 =  C5H5+C4H6               6.0E12  0.00      0 ! Alzueta  
C5H6+A1O  =  C5H5+A1OH                 3.2E11  0.00   8000 ! Alzueta


                  

!***************************************** Reactions of C5H5O and C5H4O ***************************************************
C5H5+O2=C5H5O24+O                                7.78E+15   -0.7     48740.0     !1998 Zhong&Bozzelli
C5H5+O2=C5H4O+OH                                 1.80E+12    0.080   18000.0     !USC Mech II RRKM 1atm
C5H5+HO2=C5H5O24+OH                              6.86E+10	  2.52E-01	5088.57    !R.K. Robinson, R.P. Lindstedt 2011
C5H5+HO2=C5H4O+H2O                               1.19E+33    -6.52     13400     !1998 Zhong&Bozzelli JPCA 102
HO2+C5H5=>C2H4+C2H+CO+OH                         6.00E+12    0.00       0.0      !Polimi V2012
HO2+C5H5=>iC4H5+CO+OH                            6.300E+12   0.00       0.0      !Polimi V2012
HO2+C5H5=>CH4+CO2+C3H2                           9.00E+12    0.00       0.0      !Polimi V2012
C5H5+OH=C5H5OH                                   6.49E+14   -0.85    -2730.0     !1998 Zhong&Bozzelli JPCA 102
DUPLICATE                                                                         
C5H5+OH=C5H5OH                                   1.15E+43   -8.76    18730.0     !1998 Zhong&Bozzelli JPCA 102
DUPLICATE                                                                         
C5H5+OH=C5H5OH                                   1.06E+59  -13.08    33450.0     !1998 Zhong&Bozzelli JPCA 102
DUPLICATE                                       
C5H5+OH=C5H4OH+H                                 3.51E+57  -12.2     48350.0     !1998 Zhong&Bozzelli JPCA 102
C5H5+OH=C5H5O24+H                                1.36E+51  -10.5     57100.0     !1998 Zhong&Bozzelli JPCA 102
C5H5+OH=cC5H4+H2O                                2.11E+14    0.0      4571.0     !1998 Zhong&Bozzelli JPCA 102
C5H5+O=cC5H4+OH                                  2.00E+13    0.0     14694.0     !1994 Lindstedt&Skevis
C5H5+O=C5H5O24                                   1.12E-12    5.9    -17310.0     !1998 Zhong&Bozzelli JPCA 102
C5H5+O=C5H4O+H                                   5.81E+13    0.0        20.0     !1998 Zhong&Bozzelli JPCA 102
C5H5+O=nC4H5+CO                                  3.20E+13   -0.2       440.0     !1998 Zhong&Bozzelli JPCA 102 Est.       
OH+C5H5=>CO+C4H6                                 1.250E+13    .250   4350.0      !Polimi V2012
C5H5OH=C5H4OH+H                                  8.506E+70   -16.413  94532.7    !R.K. Robinson, R.P. Lindstedt 2011
 PLOG/ 1                                         8.506E+70   -16.413  94532.7/
 PLOG/ 10                                        1.180E+62   -13.596  91737.6/
 PLOG/ 100                                       2.047E+18   -0.337   72792.8/
C5H5OH=C5H5O24+H                                 6.539E+48   -9.478   122484     !R.K. Robinson, R.P. Lindstedt 2011
 PLOG/ 1                                         6.539E+48   -9.478   122484/
 PLOG/ 10                                        9.714E+37   -6.213   117730/
 PLOG/ 100                                       1.933E+18   -0.318   108532/    !HPL
C5H5OH+H=C5H5O24+H2                              1.15E+14    0.0     15400.0     !1998 Zhong&Bozzelli JPCA 102
C5H5OH+H=C5H4OH+H2                               1.20E+05    2.5      1492.0     !1998 Zhong&Bozzelli JPCA 102
C5H5OH+OH=C5H4OH+H2O                             5.5E12       0.0      1731.0    !Alzueta & Glarborg IJCK 32: 498-522, 2000.
C5H5OH+OH=C5H5O24+H2O                            1.0E+13      0.0      1697.0    !Alzueta & Glarborg IJCK 32: 498-522, 2000.
C5H5OH+O=C5H4OH+OH                               4.7E+11     0.0        0.0      !Alzueta & Glarborg IJCK 32: 498-522, 2000.
C5H5OH+O=C5H5O24+OH                              1.0E+13     0.0      4683.0     !Alzueta & Glarborg IJCK 32: 498-522, 2000.
C5H5OH+HO2=C5H4OH+H2O2                           3.6E+3     2.55     10531.0     !Alzueta & Glarborg IJCK 32: 498-522, 2000.
C5H5OH+HO2=C5H5O24+H2O2                          1.0E+13     0.0     15800.0     !Alzueta & Glarborg IJCK 32: 498-522, 2000.
C5H4OH=C5H4O+H                                   2.10E+13    0.0     48000.0     !H Wang est
C5H4OH+H=C5H4O+H2                                2.1E+13     0.0     54000.0     !Alzueta & Glarborg IJCK 32: 498-522, 2000. 
C5H4OH+O2=C5H4O+HO2                              3.0E+13     0.0     5000.0      !Alzueta & Glarborg IJCK 32: 498-522, 2000. 
C5H5O24=C5H4O+H                                  8.183E+16  -2.319   8719.9      !R.K. Robinson, R.P. Lindstedt 
 PLOG/ 1                                         8.183E+16  -2.319   8719.9/
 PLOG/ 10                                        5.064E+18  -2.543   9508.2/
 PLOG/ 100                                       9.101E+19  -0.957   18443.1/    !HPL
C5H5O24+O2=C5H4O+HO2                             1.00E+11    0.0         0.0     !USC Mech II
C5H6+O=C5H5O13+H                                 8.91E+12   -0.150     590.0     !1998 Zhong&Bozzelli C5H5O1_1
DUPLICATE                                                                     
C5H6+O=C5H5O13+H                                 5.60E+12   -0.060     200.0     !1998 Zhong&Bozzelli C5H5O1_2
DUPLICATE
C5H5O13+O2=C5H4O+HO2                             1.00E+11    0.0         0.0     !USC Mech II                                                                
C5H4O+H=nC4H5+CO                                 2.1E+61   -13.27    40810.0     !1998 Zhong&Bozzelli
C5H4O+H=C5H5O13                                  2.00E+13    0.0      2000.0     !USC Mech II
C5H4O=CO+C2H2+C2H2                               7.0E+31    -6.88    66900       !Wang and Brezinsky J PHYS CHEM A 102: 1530 1998
    PLOG/ 0.1                                    7.0E+31    -6.88    66900/
    PLOG/ 0.1                                    1.1E+47    -9.63    99500/
    PLOG/ 1.0                                    5.7E+32    -6.76    68500/
    PLOG/ 1.0                                    6.2E+41    -7.87    98700/
    PLOG/ 10.0                                   4.4E+31    -6.06    69500/
    PLOG/ 10.0                                   1.8E+33    -5.22    95800/
    PLOG/ 100                                    2.9E+37    -4.50    69100/
    PLOG/ 100                                    7.3E+30    -4.39    96300/
C5H4O=C4H4+CO                                    1.0E+12      0.00    52988      !Dagaut 2001 
C5H4O+O=C4H4+CO2                                 1.0E13     0.0      2000.0      !Alzueta & Glarborg IJCK 32: 498-522, 2000.
C5H4O+H=C5H3O+H2                                 2.0E+12    0.0      8100.0      !Alzueta & Glarborg IJCK 32: 498-522, 2000.
C5H4O+O=C5H3O+OH                                 1.4E+13    0.0      1470.0      !Alzueta & Glarborg IJCK 32: 498-522, 2000.
C5H3O+H=C5H4O                                    1.0E14     0.0      0.0         !Alzueta & Glarborg IJCK 32: 498-522, 2000.
C5H3O+O2=>CO2+C2H2+HCCO                          9.7E+58  -13.47     38180.0     !Alzueta & Glarborg IJCK 32: 498-522, 2000.
C5H3O=>C2H2+CO+C2H                               2.0E13     0.0      51000.0     !Alzueta & Glarborg IJCK 32: 498-522, 2000.
C5H4O+OH=C5H3O+H2O                               1.1E+8     1.42     1450.0      !Alzueta & Glarborg IJCK 32: 498-522, 2000.
C5H4O+O=CO+HCO+C3H3                              1.20E+08    1.4      -858.0     !USC Mech II
C5H5O24=nC4H5+CO                                 1.1E79    -19.62      66250     !Alzueta 


! *** C5H5(CY), C5H5(L) Reactions ***
!

C5H5+H  =  C5H6                        1.5E14  0.00      0 !Alzueta  
C5H5+O2  =  CH2CHCHCO+HCO              1.2E19 -2.48  10970 !Alzueta  

! *** C5H7(CY), C5H7(L), C5H8(L), C5H7O(L), C5H7OH(L), C5H7O2(L) Reactions ***
!
C5H7 = lC5H7                           3.2E15  0.00  39500 !   
C5H7+H  =  C5H6+H2                     3.6E12  0.00      0 !   
C5H7+O  =  C5H6+OH                     1.0E13  0.00      0 !   
C5H7+OH  =  C5H6+H2O                   2.4E13  0.00      0 !   
C5H7+O2  =  CHOCH2CH2C.HCHO            8.0E24 -3.80  20000 !   
CHOCH2CH2C.HCHO+O2  =  CHOCH2CH2CHO+HCOO 6.3E05  1.65  17480 ! 
 
 
  


                       
!******************************************* reactions of C5H2 C5H3 cC5H4(cyclopentadienylidene)C5H4 **************************************************************                                                                                                
C4H2+CH2*=C5H3+H                                 1.30E+13    0.0         0.0     !1992 Miller&Melius         
C4H2+CH2=C5H3+H                                  3.00E+13    0.0         0.0     !1992 Miller&Melius         
C4H2+CH=C5H2+H                                   1.00E+14    0.0         0.0     !1992 Miller&Melius      
C5H3+H=C5H2+H2                                   6.03E+13    0.0     15103.0     !1992 Baulch et al. CH3+H=CH2+H2 in 2002 Richter&Howard     
C5H3+CH3=A1                                      4.3E+12     0.0       0.0       !Estimated
C5H3+OH=C5H2+H2O                                 1.00E+13    0.0      0.0        ! Estimated 
C5H3+CH=C6H2+H+H                                 5.00E+13    0.0      0.0        ! Estimated 
C5H3+CH2=l-C6H4+H                                5.00E+13    0.0      0.0        ! = C3H3+CH2  
C5H2+OH=>C4H2+H+CO                               2.00E+13    0.0      0.0        ! Estimated 
C5H2+CH=C6H2+H                                   5.00E+13    0.0      0.0        ! Estimated
C5H2+O2=H2C4O+CO                                 1.00E+12    0.0      0.0        ! Estimated
cC5H4=C5H4                                       1.98E+12   0.56    42240.0                             
 PLOG /  0.1                                     2.30E+39  -8.81    47800.0  /   != cC3H4 = aC3H4 99DAV/LAW RRKM          
 PLOG /  0.4                                     7.59E+40  -9.07    48831.0 /           
 PLOG /  1                                       4.89E+41  -9.17    49594.0 /             
 PLOG /  2                                       8.81E+41  -9.15    50073.0 /             
 PLOG /  5                                       4.33E+41  -8.93    50475.0 /               
 PLOG /  10                                      7.20E+40  -8.60    50600.0 /             
 PLOG /  100                                     1.60E+35  -6.64    49500.0 /              
cC5H4+H=>C5H5                                    6.61E+12   0.3      770         ! Marco Derudi, Daniela Polino and Carlo Cavallotti PCCP 2011,13
C5H5=>cC5H4+H                                    5.37E+17  -0.55    115500       ! Marco Derudi, Daniela Polino and Carlo Cavallotti PCCP 2011,13
!cC5H4+A1CH3=C5H5+A1CH2                           4.47E+03   2.37     3300        ! Marco Derudi, Daniela Polino and Carlo Cavallotti PCCP 2011,13                                                                               
C4H2+CH3=C5H4+H                                  2.40E+09    0.91    20700.0     !1999 Davis et al. C2H2+CH3=aC3H4+H in 2010 Li(Ph.D. Thesis)
C4H+CH4=C5H4+H                                   2.40E+09    0.91    20700.0     !1999 Davis et al. C2H2+CH3=aC3H4+H in 2010 Li(Ph.D. Thesis)
aC3H4+C2H=C5H4+H                                 9.60E+13    0.0         0.0     !2000 Appel et al. C2H2+C2H=C4H2+H in 2010 Li(Ph.D. Thesis)                                                                               
C5H3+H=C5H4                                      3.6308E+36   -7.36     6039.    !2008 Miller & Senosiain & Klippenstein  C3H3+H=pC3H4   20130821      
  PLOG  /0.03947                                 7.26E+36   -7.36     6039./     !*2  
  PLOG  /1.                                      1.59E+30   -5.06     4861./     !*2 
  PLOG  /10.                                     2.14E+24    -3.15    3261./     !*2                                                                                                                                                               
C5H4+H=C5H3+H2                                   1.00E+06    2.50     5000.0     !Alzueta et al. 1998 
C5H4+O  =   C5H3+OH                              1.0E06  2.50   3000             !Alzueta
C5H4+OH  =   C5H3+H2O                            1.0E06  2.00       0            !Alzueta 
C5H3+O2  =   C2H2+HCCO+CO                        1.0E12  0.00      0             !Alzueta  
!******************************************** Reactions of CnH2**************************************************************************************
C4H+H(+M) = C4H2(+M)                             1.000E+17   -1.000     0.00     != C2H +H 
                                         LOW  /  3.750E+33   -4.800  1900.00   /
                                         TROE/  0.6464  132.00  1315.00 5566.0 /
C4H+H2 = H+C4H2                                  4.90E+05    2.500    560.00
C4H2+C2H=C6H2+H                                  9.60E+13    0.0        0.       != C2H2 + C2H HACA
C4H+O2  =  CO+CO+C2H                             1.0E13  0.00      0             ! added from Alzueta mech  
C2H2+C4H=C6H2+H                                  7.80E+13    0.0        0.       != C2H2 + C2H 
C4H+C2H=C6H2                                     5.00E+13    0.0        0.0      != C2H+C2H
C3H2+C3H2=C6H2+H2                                1.00E+13    0.0        0.0      !MODIF                                                                                
!C6H2+C2H=C8H2+H                                 9.60E+13    0.0        0.       != C2H2 + C2H HACA             
!######################################### Submechanism of PAH  #############################################################################


!************************************   nC4H10 (n-butane)  reactions   ************************************************************************
C4H10(+M)=nC3H7+CH3(+M)                         4.28E14     0.0      69902      !04 OMA   
                                         LOW  / 5.34E17     0.0      42959 /
                                    TROE / 0.28   0.1  1500.0    50000.0 /                                                              
C4H10(+M)=C2H5+C2H5 (+M)                        2.72E15     0.0      75605      !04 OMA           
                                         LOW /  4.72E18     0.0      49575 /
                                    TROE / 0.28    0.1  1500.0     50000.0 /                                               
pC4H9+H(+M) = C4H10(+M)                         3.60E+13    0.00     0.0        ! =(nC3H7+H) TS3 600 cm-1  USC MechII
                                        LOW  /  3.01E+48   -9.32     5833.6   /
                                    TROE /  0.498  1314.0  1314.0 50000.0 /
                                     H2/2/ H2O/6/ CH4/2/ CO/1.5/ CO2/2/ C2H6/3/ AR/0.7/ 
sC4H9+H(+M) = C4H10(+M)                         2.40E+13     0.00       0.0     ! =(iC3H7+H) TS3 600 cm-1  USC MechII 
                                        LOW  /  1.70E+58   -12.08     11263.7   /
                                        TROE /  0.649  1213.1  1213.1 13369.7 /
                                    H2/2/ H2O/6/ CH4/2/ CO/1.5/ CO2/2/ C2H6/3/ AR/0.7/
C4H10+H = pC4H9+H2                              1.33E+06    2.54     6756       !2006 Orme & Curran & Simmie
C4H10+H = sC4H9+H2                              2.60E+06    2.40     4471       !2006 Orme & Curran & Simmie 
C4H10+CH3 = pC4H9+CH4                           9.06E-01    3.65     7154       !2006 Orme & Curran & Simmie 
C4H10+CH3 = sC4H9+CH4                           3.02E+00    3.46     5481       !2006 Orme & Curran & Simmie
C4H10+C2H5 = pC4H9+C2H6                         1.58E+11    0.00     12300      !2009 Westbrook & Pitz et al.
C4H10+C2H5 = sC4H9+C2H6                         1.00E+11    0.00     10400      !2009 Westbrook & Pitz et al.
C4H10+O = pC4H9+OH                              4.90E+06    2.40     5500.0     ! CW
C4H10+O = sC4H9+OH                              4.30E+05    2.60     2580.0     ! CW
C4H10+OH = pC4H9+H2O                            3.30E+07    1.80      954.0     ! C
C4H10+OH = sC4H9+H2O                            5.40E+06    2.00     -596.0     ! C
C4H10+O2 = pC4H9+HO2                            4.00E+13    0.00    50930.0     ! =(C3H8+O2) TS3
C4H10+O2 = sC4H9+HO2                            8.00E+13    0.00    47590.0     ! =(C3H8+O2)*2 TS3
C4H10+HO2 = pC4H9+H2O2                          4.76E+04    2.55    16490.0     ! =(C3H8+HO2) TS3
C4H10+HO2 = sC4H9+H2O2                          1.90E+04    2.60    13910.0     ! =(C3H8+HO2)*2 TS3
!**************************************  reactions of iC4H10(iso-butane)  ***************************************************************
iC3H7+CH3(+M) = iC4H10(+M)                     1.40E+15     -0.68         0.0  !USC Mech II TS4, 600cm-1
                                        LOW  / 4.16E+61 -13.33      3903.4   /
                                    TROE / 0.931 60000.0  1265.3  5469.8 /
                            H2/2/ H2O/6/ CH4/2/ CO/1.5/ CO2/2/ C2H6/3/ AR/0.7/                                                                                                           
iC4H9+H(+M) = iC4H10(+M)                       3.60E+13      0.00       0.0    !USC Mech II(TS4, 600cm-1)
                                         LOW  /3.27E+56     -11.74      6430.8  /
                                       TROE / 0.506  1266.6  1266.6 50000.0   /
                                   H2/2/ H2O/6/ CH4/2/ CO/1.5/ CO2/2/ C2H6/3/ AR/0.7/
tC4H9+H(+M) = iC4H10(+M)                       2.40E+13      0.00       0.0    !USC Mech II(TS4, 600cm-1)
                                         LOW  /1.47E+61     -12.94      8000.0  /
                                     TROE / 0.000  1456.4  1000.0 10000.5   /
                               H2/2/ H2O/6/ CH4/2/ CO/1.5/ CO2/2/ C2H6/3/ AR/0.7/
iC4H10+H = iC4H9+H2                            1.80E+06      2.54      6760.0  !USC Mech II TS4
iC4H10+H = tC4H9+H2                            6.00E+05      2.40      2580.0  !USC Mech II TS4
iC4H10+CH3 = iC4H9+CH4                         1.36E+00      3.65      7150.0  ! TS4 
iC4H10+CH3 = tC4H9+CH4                         9.00E-01      3.46      4600.0  ! TS4
iC4H10+O = iC4H9+OH                            4.30E+05      2.50      3640.0  ! TS4
iC4H10+O = tC4H9+OH                            1.57E+05      2.50      1110.0  ! TS4
iC4H10+OH = iC4H9+H2O                          2.30E+08      1.53      775.0   ! TS4
iC4H10+OH = tC4H9+H2O                          5.73E+10      0.51        64.0  ! TS4
iC4H10+HO2 = iC4H9+H2O2                        3.00E+04      2.55     15500.0  ! TS4
iC4H10+HO2 = tC4H9+H2O2                        3.60E+03      2.55     10500.0  ! TS4
iC4H10+O2 = iC4H9+HO2                          4.00E+13      0.00     50900.0  ! TS4
iC4H10+O2 = tC4H9+HO2                          4.00E+13      0.00     44000.0  ! TS4
!****************************  reactions of pC4H9(1-butyl) and sC4H9(2-butyl) and iC4H9(iso-butyl) ****************************************************************
pC4H9(+M) = C2H4+C2H5(+M)                      1.00E+13      0.00     28366.4  !USC Mech II(98TSA !BS) 
                                         LOW  /7.10E-35      15.41   -600.0   /
                                TROE /-5.91  333.0  28.0       50000.0 /
                          H2/2/ H2O/6/ CH4/2/ CO/1.5/ CO2/2/ C2H6/3/ AR/0.7/
sC4H9(+M) = C3H6+CH3(+M)                       1.80E+13      0.00     29348.0  !USC Mech II(98TSA !BS)
                                         LOW  /4.00E-39      16.78   -600.4   /
                                TROE /-7.03  314.0  28.0       50000.0 /
                          H2/2/ H2O/6/ CH4/2/ CO/1.5/ CO2/2/ C2H6/3/ AR/0.7/
C4H81+H(+M) = pC4H9(+M)                        1.33E+13      0.00    3260.7    ! =(C3H6+H) TS5 600 cm-1
                                        LOW  / 6.26E+38     -6.66    7000.0   /
                                TROE / 1.000  1000.0  1310.0 48097.0 /
                          H2/2/ H2O/6/ CH4/2/ CO/1.5/ CO2/2/ C2H6/3/ AR/0.7/
C4H81+H(+M) = sC4H9(+M)                        1.33E+13   0.00      1559.8     ! =(C3H6+H) TS5 600 cm-1
                                        LOW  / 8.70E+42  -7.50      4721.8   /
                                TROE / 1.000  1000.0   645.4  6844.3 /
                          H2/2/ H2O/6/ CH4/2/ CO/1.5/ CO2/2/ C2H6/3/ AR/0.7/ 
C4H82+H(+M) = sC4H9(+M)                        1.33E+13   0.00      1559.8     ! =(C3H6+H=iC3H7) TS5 600cm-1
                                        LOW  / 8.70E+42  -7.50      4721.8   /
                                TROE / 1.000  1000.0   645.4  6844.3 /
                          H2/2/ H2O/6/ CH4/2/ CO/1.5/ CO2/2/ C2H6/3/ AR/0.7/                           
iC4H8+H(+M) = iC4H9(+M)                        1.33E+13   0.00      3260.7     ! =(C3H6+H=nC3H7) TS5 600 cm-1
                                        LOW  / 6.26E+38  -6.66      7000.0  /
                                TROE / 1.000  1000.0  1310.0 48097.0 /
                          H2/2/ H2O/6/ CH4/2/ CO/1.5/ CO2/2/ C2H6/3/ AR/0.7/                                                     
iC4H9+H = iC3H7+CH3                            1.10E+32  -5.04     16760.0     ! USC MechII
          PLOG / 0.1                           1.10E+32  -5.04     16760.0/    ! 
          PLOG / 1.0                           1.90E+35  -5.83     22470.0/    ! 
          PLOG / 10.0                          1.35E+40  -7.02     31000.0/    !                           
C3H6+CH3(+M) = iC4H9(+M)                       9.60E+10   0.00      8003.6     ! 
                                         LOW  / 1.30E+28  -4.27      2431.1   /
                                 TROE / 0.565 60000.0   534.2  3007.2 /
                           H2/2/ H2O/6/ CH4/2/ CO/1.5/ CO2/2/ C2H6/3/ AR/0.7/                                                                                
!************************************ reactions of i-C4H8(iso-butene) ********************************************************
iC4H7+H(+M) = iC4H8(+M)                        2.00E+14      0.00       0.0    !USC Mech II (=(aC3H5+H) TS5 600cm-1)
                                        LOW  / 1.33E+60    -12.00      5967.8   /
                                TROE / 0.020  1096.6  1096.6  6859.5 /
                          H2/2/ H2O/6/ CH4/2/ CO/1.5/ CO2/2/ C2H6/3/ AR/0.7/
CH3CCH2+CH3 (+M) = iC4H8(+M)                   2.50E+13      0.00       0.0    !USC Mech II (86TSA/HAM) C2H3+CH3 (+M) = C3H6(+M)
                                        LOW  /4.270E+58    -11.940    9769.80 /
                                TROE /0.175  1340.6  60000.0   10139.8 /
                          H2/2/ H2O/6/ CH4/2/ CO/1.5/ CO2/2/ C2H6/3/ AR/0.7/C2H2/3.00/ C2H4/3.00/                                                                
iC4H8+H = iC4H7+H2                             1.72E+14   0.0      8000        !2009 Yasunaga et al.
iC4H8+H = iC4H7-1+H2                           1.20E+14   0.0      13000       !2009 Yasunaga et al.
iC4H8+H = C3H6+CH3                             8.80E+16  -1.05     6461.0      !Ref USC Mech II 
              PLOG/ 0.1                        8.80E+16  -1.05     6461.0 /    !Ref USC Mech II 
              PLOG/ 1.0                        8.00E+21  -2.39     11180.0 /   !Ref USC Mech II 
              PLOG/ 10                         3.30E+24  -3.04     15610.0 /   !Ref USC Mech II 
iC4H8+CH3 = iC4H7+CH4                          4.40E+00   3.50     5675.0      !Ref C3H6+CH3=aC3H5+CH3 x2 in USC Mech II
iC4H8+CH3 = iC4H7-1+CH4                        2.00E+12   0.0      15000       !2009 Yasunaga et al.
iC4H8+O = CH3+CH3+CH2CO                        1.20E+08   1.65      327.0      ! =(C3H6+O) TS5
iC4H8+O = iC3H7+HCO                            3.50E+07   1.65     -972.0      ! =(C3H6+O) TS5 k(c)
iC4H8+O = iC4H7+OH                             2.90E+05   2.50     3640.0      ! =(iC4H10+O)*2/3 TS4
iC4H8+OH = iC4H7+H2O                           1.50E+08   1.53      775.0      ! =(iC4H10+OH)*2/3 TS4
iC4H8+HO2 = iC4H7+H2O2                         2.00E+04   2.55     15500.0     ! =(iC4H10+HO2)*2/3 TS4
iC4H8+O2 = iC4H7+HO2                           2.70E+13   0.00     50900.0     ! =(iC4H10+O2)*2/3 TS4
CH2O+iC4H7=HCO+iC4H8	                         1.26e+08	 1.9	    18183.56     !CH2O+aC3H5=HCO+C3H6 Tsang 1991                
!************************************ reactions of C4H82(2-butene) ********************************************************************                                            
CH3CHCH+CH3(+M) = C4H82(+M)                    5.00E+13   0.0      0.00        !Ref C2H3+CH3(+M)=C3H6(+M)
                                         LOW  /8.54E+58  -11.940   9769.80 /  
                                 TROE /0.175  1340.6 60000.0    10139.8 /  
                            H2/2/ H2O/6/ CH4/2/ CO/1.5/ CO2/2/ C2H6/3/ AR/0.7/C2H2/3.00/ C2H4/3.00/  
C4H82 = aC3H5+CH3                              0.75E+65  -15.6     97300       !Assume by this work
C4H82+H = SAXC4H7+H2                           3.16E+06    2.5     6756        !Ref C6H12+H=SAXC6H11+H2 in 2009 Kiefer et al. x2
C4H82+H=CH3CCHCH3+H2                           1.32E+06    2.53    12240.0     !Ref C2H4+H=C2H3+H2 
!C4H82 = H+SAXC4H7                             4.60E+84   -20.03   132787      !Ref C3H6=aC3H5+H in 2009 Kiefer et al. x2 25Torr/5 to 5Torr
SAXC4H7+H(+M) = C4H82(+M)                      2.00E+14    0.00    0.0         ! =(ac3H5+H)               
                                        LOW  / 2.66E+60 -12.00   5967.8 /      ! 2*(aC3H5+H)
                                H2/2/ H2O/6/ CH4/2/ CO/1.5/ CO2/2/ C2H6/3/                           
C4H82+H = C3H6+CH3                             3.46E+17  -1.05     6461.0      !Ref C3H6+H=C2H4+CH3 x2 in USC Mech II (91TSA RRKM 0.1 atm) 
C4H82+CH3 = SAXC4H7+CH4                        4.40E+00   3.50     5675.0      !Ref C3H6+CH3=aC3H5+CH3 x2 in USC Mech II  
C4H82+O = SAXC4H7+OH                           3.60E+11   0.70     5880.0      ! 2X(C3H6+O)
C4H82+OH = SAXC4H7+H2O                         6.20E+06   2.00     -298.0      ! 2X(C3H6+OH)
C4H82+HO2 = SAXC4H7+H2O2                       1.42E+04   2.77    14913.0      ! 2X(C3H6+HO2)                                                                                               
!********************************** reactions of C4H81(1-butene) ***********************************************************************                                           
aC3H5+CH3(+M) = C4H81(+M)                      1.00E+14  -0.32     -262.3      !USC Mech II (91TSA)
                                        LOW  / 3.91E+60  -12.81    6250.0    /     
                                  TROE / 0.104  1606.0 60000.0  6118.4 /     
                                H2/2/ H2O/6/ CH4/2/ CO/1.5/ CO2/2/ C2H6/3/ AR/0.7/     
C2H5+C2H3(+M) = C4H81(+M)                      1.50E+13   0.00      0.0        !USC Mech II (86TSA/HAM) 
                                        LOW  / 1.55E+56    -11.79      8984.5  /   
                                  TROE / 0.198 2277.9 60000.0 5723.2   /     
                                H2/2/ H2O/6/ CH4/2/ CO/1.5/ CO2/2/ C2H6/3/ AR/0.7/     
C4H7+H(+M) = C4H81(+M)                         3.60E+13   0.00      0.0        !USC Mech II (= nC3H7+H)
                                        LOW  / 3.01E+48  -9.32      5833.6 /    
                                  TROE / 0.498  1314.0  1314.0 50000.0  /    
                                H2/2/ H2O/6/ CH4/2/ CO/1.5/ CO2/2/ C2H6/3/ AR/0.7/     
SAXC4H7+H(+M) = C4H81(+M)                      2.00E+14   0.00      0.0        ! =(ac3H5+H) 
                                        LOW  / 2.66E+60 -12.00      5967.8 /   ! 2*(aC3H5+H)
                                H2/2/ H2O/6/ CH4/2/ CO/1.5/ CO2/2/ C2H6/3/
C4H7-2+H = C4H81                               1.00E+13   0.0        0.0       !EST
C4H81+H = SAXC4H7+H2                           1.30E+06   2.40       4471.0    !JetSurF 2.0 (C3H8+H)
C4H81+H = C4H7+H2                              1.30E+06   2.4        4470      !Ref C6H12+H=C6H11-5+H2 in 2009 Kiefer et al.
C4H81+H = C4H7-2+H2                            4.00E+05   2.50       9790.0    !Ref C3H6+H=CH3CCH2+H2 in USC Mech II (91TSA) 
C4H81+H = C3H6+CH3                             3.20E+22	 -2.39       11180     !2009 Kiefer et al. 25Torr
C4H81+H = C2H4+C2H5                            8.80E+16  -1.05       6461.0    !Ref C3H6+H=C2H4+CH3 in USC Mech II (91TSA RRKM 0.1 atm)
C4H81+CH3 = SAXC4H7+CH4                        2.82E+00   3.60       7153      !Ref C6H12+CH3=SAXC6H11+CH4 in 2009 Kiefer et al.
C4H81+CH3 = C4H7+CH4                           4.50E-01   3.65       7153.0    !USC Mech II (C3H8+CH3)
C4H81+aC3H5 = SAXC4H7+C3H6                     7.90E+10   0.00       12400     !LLNL
C4H81+OH=C4H7+H2O                              7.000E+02  2.660      527.00    !
C4H81+OH=SAXC4H7+H2O                           6.200E+06  2.000      -298.0    !USC Mech II 2X(C3H6+OH)
aC3H5+SAXC4H7<=>C3H6+C4H6                      6.310E+12  0.000      0.000E+00 !Edelson and Allara, 1980
C4H81+HO2 = C4H7+H2O2                          1.00E+12   0.00      14340.0    !89WAL
C4H81+HO2 = SAXC4H7+H2O2                       7.13E+03   2.77      14913.0    !=(C3H8+HO2)
C4H81+O = SAXC4H7+OH                           4.76E+04   2.71       2106.0    !=(C3H8+O)                                                                                     
!************************************* reactions of iC4H7  iC4H7-1 *****************************************************                                  
iC4H7+H = aC3H5+CH3                            2.20E+51  -9.98      37730.0    !USC Mech II 
aC3H4+CH3 = iC4H7                              2.00E+11   0.00       7500.0    !Tsang 2012   
iC4H7+H=aC3H4+CH4                              6.31E+13   0.0       0.0        !2009 Yasunaga et al. 
iC4H7-1=pC3H4+CH3                              1.20E+14   0.0       37000      !2009 Yasunaga et al.     
iC4H7-1+H=pC3H4+CH4                            3.00E+13   0.0       0.0        !EST
iC4H7-1=iC4H7                                  5.00E+12   0.0       36000      !2009 Yasunaga et al.  
SAXC4H7 = iC4H7                                6.40E+61  -14.59    88200.0     !99DAV/LAW RRKM  pC3H4 = aC3H4                     
            PLOG /0.1                          6.40E+61  -14.59    88200.0 /   !99DAV/LAW RRKM  pC3H4 = aC3H4
            PLOG/ 0.4                          5.81E+62  -14.63    91211.0 /   !99DAV/LAW RRKM  pC3H4 = aC3H4
            PLOG/ 1.0                          5.15E+60  -13.93    91117.0 /   !99DAV/LAW RRKM  pC3H4 = aC3H4
            PLOG/ 2.0                          7.64E+59  -13.59    91817.0 /   !99DAV/LAW RRKM  pC3H4 = aC3H4 
            PLOG/ 5.0                          3.12E+58  -13.07    92680.0 /   !99DAV/LAW RRKM  pC3H4 = aC3H4  
            PLOG/ 10.0                         1.90E+57  -12.62    93300.0 /   !99DAV/LAW RRKM  pC3H4 = aC3H4
            PLOG/ 100                          1.40E+52  -10.86    95400.0 /   !99DAV/LAW RRKM  pC3H4 = aC3H4 
SAXC4H7+H<=>iC4H7+H                            2.30E+15  -0.26     7600.0      !99DAV/LAW RRKM  pC3H4+H<=>aC3H4+H
            PLOG / 0.1                         2.30E+15  -0.26     7600.0 /    !99DAV/LAW RRKM  pC3H4+H<=>aC3H4+H 
            PLOG / 1.0                         6.27E+17  -0.91     10079.0 /   !99DAV/LAW RRKM  pC3H4+H<=>aC3H4+H 
            PLOG / 2.0                         1.50E+18  -1.00     10756.0 /   !99DAV/LAW RRKM  pC3H4+H<=>aC3H4+H 
            PLOG / 5.0                         1.93E+18  -1.01     11523.0 /   !99DAV/LAW RRKM  pC3H4+H<=>aC3H4+H 
            PLOG / 10.0                        3.10E+22  -2.18     14800.0 /   !99DAV/LAW RRKM  pC3H4+H<=>aC3H4+H 
            PLOG / 100.0                       6.40E+27  -3.58     21200.0 /   !99DAV/LAW RRKM  pC3H4+H<=>aC3H4+H               
iC4H7+H = CH3CCH2+CH3                          2.20E+51  -9.98     37730.0     ! =(aC3H5+H) TS5 0.1 atm
        PLOG/0.1                               2.20E+51  -9.98     37730.0 /   ! =(aC3H5+H) TS5 0.1 atm
        PLOG/1.0                               2.60E+45  -8.19     37890.0 /   ! =(aC3H5+H) TS5 1 atm
        PLOG/10                                3.40E+32  -4.46     33760.0 /   ! =(aC3H5+H) TS5 10 atm
iC4H7+O = CH2O+CH3CCH2                         9.00E+13   0.00       0.0       ! Estimated
iC4H7+HO2 = CH3CCH2+CH2O+OH                    4.00E+12   0.00       0.0       ! Estimated 
iC4H7+O=iC3H5CHO+H                             6.030E+13  0.00  0.000E+00      ! H.J.Curran 2002
iC4H7+O2=iC3H5CHO+OH                           2.470E+13 -0.45  2.302E+04      ! H.J.Curran 2002   
iC4H7+O2=CH3COCH2+CH2O                         7.140E+15 -1.21  2.105E+04      ! H.J.Curran 2002  add 1208 1636
iC4H7+O2=aC3H4+CH2O+OH                         7.290E+29 -5.71  2.145E+04      ! H.J.Curran 2002  add 1208 1636
iC4H7+HO2<=>iC4H7O+OH                          7.000e+12  0.000 -1.000e+03     ! H.J.Curran 2002  
iC4H7+HCO=iC4H8+CO                             6.030E+13  0.00      0.0        ! Tsang 1991 J. Phys. Chem. Ref. Data
!************************************ reactions of saxC4H7 C4H7 C4H7-2 ************************************************                             
C4H7(+M) = SAXC4H7(+M)                         5.75E+12      0.0       30400   !2010 Miyoshi
                                         LOW  /1.17E+15      0.0       8170     /   
                                     TROE /0.031  50    100000      50000  /  
SAXC4H7(+M) = C4H6+H(+M)                       4.70E+08      1.32      44697.6 !USC Mech II (08/TSAwip)
                                        LOW  /4.6E-37      15.37     -603.1  /    
                                    H2/2/ H2O/6/ CH4/2/ CO/1.5/ CO2/2/ C2H6/3/  
SAXC4H7+CH3=C4H6+CH4                           3.00E+12     -0.32     -131.0    !Ref aC3H5+CH3=aC3H4+CH4 
C4H612+H = SAXC4H7                             1.20E+11      0.69      3000     !2007 Gueniche & Battin et al.
C4H7-2 = SAXC4H7                               2.00E+13      0.0       47000    !2007 Gueniche & Battin et al.
C4H7-2 = CH3+aC3H4                             2.00E+13      0.0       32500    !2007 Gueniche & Battin et al.
C4H7-2 = C4H7                                  3.30E+09      1.0       43300    !2007 Gueniche & Battin et al.
C4H612+H = C4H7-2                              1.30E+13      0.0       3200     !2007 Gueniche & Battin et al.
CH3CCHCH3=pC3H4+CH3                            2.00E+13      0.0       31500    !2007 Gueniche & Battin et al.
SAXC4H7+O2<=>C4H6+HO2                          1.000e+09    0.000     0.000e+00 !Baldwin, Bennett, and Walker(1980)
H+SAXC4H7<=>C4H6+H2                            3.160e+13    0.000     0.000e+00 !Baldwin, Bennett, and Walker(1980)
C4H7<=>C4H6+H                                  2.48E+53    -12.30      52000.0  !USCMechII    
          PLOG / 1.0                           2.48E+53    -12.30      52000.0 /
          PLOG / 10.0                          1.85E+48    -10.50      51770.0 /
C4H7+O2 = C4H6+HO2                             1.00E+11      0.00         0.0   !Estimated
C4H7+HO2 = CH2O+OH+aC3H5                       2.40E+13      0.00         0.0   != nC3H7+HO2
C4H7+HCO = C4H81+CO                            6.00E+13      0.00         0.0   != nC3H7+HCO
C4H7+CH3 = C4H6+CH4                            1.10E+13      0.00         0.0   != nC3H7+CH3          
C4H7+H = CH3+aC3H5                             2.00E+21     -2.00     11000.0   !Estimated
C4H7+H = C4H6+H2                               1.80E+12      0.00         0.0   != nC3H7+H                            
!****************************************** reactions of C4H6 ********************************************************  
C2H3+C2H3<=>C4H6                               7.00E+57     -13.82   17629.
            PLOG / 2.63e-2                     7.00E+57     -13.82   17629. /   !USC Mech
            PLOG / 0.12                        1.50E+52     -11.97   16056. /
            PLOG / 1.0                         1.50E+42      -8.84   12483. /
iC3H7+C2H2=C4H6+CH3                            2.770E+10     0.0     6504.0     !(88TSA)  
C4H6 = C4H4+H2                                 2.50E+15      0.0     94700.     !USC Mech II (96HID/HIG) 
C4H6 = H2CC+C2H4                               1.00E+13      0.0     85000.0    !Est
C4H612+H = C4H6+H                              2.00E+13      0.0     4000.      !Estimated 
C4H6+H=nC4H5+H2                                5.000E+15     0.0     22800.0    !(93hiD/hiG)         
C4H6+H=iC4H5+H2                                2.500E+15     0.0     22800.0    !(93hiD/hiG)         
C2H4+C2H3=C4H6+H                               5.00E+11      0.0     7304       !Tsang 1996
C4H6+H = pC3H4+CH3                             2.00E+12      0.0     7000.      !Estimated USC
C4H6+H = aC3H4+CH3                             2.00E+12      0.0     7000.      !Estimated USC
C4H6+CH3 = nC4H5+CH4                           2.00E+14      0.0     22800.     !96HID/HIG
C4H6+CH3 = iC4H5+CH4                           1.00E+14      0.0     19800.     !96HID/HIG
C4H6+C3H3 = nC4H5+aC3H4                        1.00E+13      0.0     22500.     !96HID/HIG
C4H6+C3H3 = iC4H5+aC3H4                        0.50E+13      0.0     19500.     !96HID/HIG
iC4H5+H=C4H6                                   1.00E+12      0.0      0.0       !EST
nC4H5+H=C4H6                                   1.00E+12      0.0      0.0       !EST 
nC4H5+H(+m)=C4H612(+m) 1.0E0 0.0 0.0
TCHEB / 300.0 4000.0 /  PCHEB / 0.01 100.0 /
CHEB / 7        4 /
CHEB /  0.12963091E+02    0.68936216E+00   -0.14635237E+00    0.25287469E-01/
CHEB /    -0.10469090E+01    0.78094522E+00   -0.28031755E-01   -0.32168604E-01/
CHEB /    -0.61132158E+00    0.32224229E+00    0.51871850E-01   -0.17874012E-01/
CHEB /    -0.30035559E+00    0.82704668E-01    0.42510265E-01    0.95307506E-03/
CHEB /    -0.12374636E+00   -0.11538350E-02    0.16128529E-01    0.56036263E-02/
CHEB /    -0.38226593E-01   -0.16183721E-01    0.12500383E-02    0.30951442E-02/
CHEB /    -0.32128918E-02   -0.11586030E-01   -0.26470124E-02    0.58929137E-03/
nC4H5+H(+m)=C4H6(+m) 1.0E0 0.0 0.0
TCHEB / 300.0 4000.0 /  PCHEB / 0.01 100.0 /
CHEB / 7        4 /
CHEB /   0.93415345E+01   -0.10692347E+01   -0.16291075E+00    0.24437127E-01/
CHEB /    0.69292521E+00    0.10598192E+01   -0.23660041E-01   -0.29908641E-01/
CHEB /   -0.36185347E-01    0.38987240E+00    0.50524154E-01   -0.31823050E-02/
CHEB /   -0.13334020E+00    0.81364911E-01    0.17118281E-01    0.13670746E-01/
CHEB /   -0.83328821E-01    0.39418106E-02   -0.13086532E-01    0.84330942E-02/
CHEB /   -0.33360186E-01    0.19010024E-02   -0.16058069E-01    0.19777740E-03/
CHEB /   -0.82554374E-02    0.68296075E-02   -0.80215779E-02   -0.26272400E-02/
C4H6+OH=nC4H5+H2O                              1.000E+07     2.0    7253.0     !(88LiU/MUL E>*RTi/2.29)
C4H6+OH=iC4H5+H2O                              8.000E+06     2.0    3744.0     !(88LiU/MUL E>*RTi/2.17) 
O+C4H6=>CO+C3H6                                1.500E+12     0.000     0.0     !ranzi 20131016 
C4H6=C2H4+C2H2                                 1.000E+87    -20.85   132930    !2000 Tsang C4H6 mechanism /30 for pressure falloff  
C4H6=C4H612                                    8.190E+74     -17.56   115782   !2000 Tsang C4H6 mechanism 
C4H6-2 = C4H6                                  0.600E+13     0.000    65000.   !96HID/HIG 3.00E+13
C4H6-2 = C4H612                                0.600E+13     0.000    67000.   !96HID/HIG 3.00E+13
C4H6-2+H = C4H612+H                            2.000E+13     0.0       4000.   !USC Mech II (Estimated)
C4H6-2+H = CH3+pC3H4                           2.600E+05     2.500     1000.   !96HID/HIG 2.60E+5
C4H6-2 = H+C4H5-2                              2.000E+14     0.000    87300.   !96HID/HIG 5.00E+15      
C4H6-2+CH3 = C4H5-2+CH4                        1.400E+14     0.0      18500.   !USC Mech II (Estimated)
C4H6-2+H = C4H5-2+H2                           3.400E+05     2.5       2490.   !USC Mech II (= C3H6+H )
C4H6+O=aC3H5+HCO                               6.0E08        1.45      -858    ! added from Alzueta mech
C4H6+O=CH2CHO+C2H3                             1.0E12        0.00        0     ! added from Alzueta mech
!****************************************** reactions of C4H6O2 ********************************************************  
CHOCH2CH2CHO+H  =  CHOCH2CH2C.O+H2     2.3E10  1.05   3279 !  Alzueta
CHOCH2CH2CHO+OH  =  CHOCH2CH2C.O+H2O   3.5E09  1.18   -447 !  Alzueta
CHOCH2CH2C.O+O2  =   C2H4+O2CCHOO.     1.6E45 -9.92  20670 !  Alzueta


! *** C4H4O Reactions ***
!
CH2CHCHCO+H  =  aC3H5+CO               6.6E13 -0.02   2740 ! Alzueta  
CH2CHCHCO+O  =  CH2CHO+HCCO            3.0E08  1.45   -860 ! Alzueta  
CH2CHCHCO+OH  =  aC3H5+CO2             3.0E12  0.00      0 ! Alzueta 


!*******************************************  reactions of C4H612 ***************************************************
C4H612+H=C3H3+CH4                              1.00E+13      0.0       0.0
C4H612+H=C2H3+C2H4                             4.00E+11      0.0       0.0
C3H3+CH3 (+M) =C4H612(+M)                    1.50E+12      0.0       0.0     !97WAN/FRE 
                                         LOW / 2.60E+57    -11.94      9770.0 /
                                      TROE /0.175 1340.6 60000.0    9769.8 /
                           H2/2.0/ H2O/6.0/ CH4/2.0/ CO/1.5/ CO2/2.0/ C2H6/3.0/ AR/0.7/                       
C4H612+H = aC3H4+CH3                           2.00E+13      0.0       2000.   !97WAN/FRE
C4H612+H = pC3H4+CH3                           2.00E+13      0.0       2000.   !97WAN/FRE
C4H612+CH3=iC4H5+CH4                           2.20E+00      3.5       5700      
C4H612+H = iC4H5+H2                            3.16E+06      2.5       6756    !Ref C6H12+H=SAXC6H11+H2 in 2009 Kiefer et al.
C4H612+H = nC4H5+H2                            1.16E+06      2.5       6756    !Ref C6H12+H=SAXC6H11+H2 in 2009 Kiefer et al.
iC4H5+H =C4H612                                5.00E+13      0.0       5000.0  !USC Mech II
C4H612+O = CH2CO+C2H4                          1.20E+08      1.65       327.   != C3H6+O
C4H612+O = iC4H5+OH                            1.80E+11      0.70      5880.   != C3H6+O
C4H612+OH = iC4H5+H2O                          3.10E+06      2.00      -298.   != C3H6+OH                                                                                    
!********************************************* reactions of C4H5*****************************************************
nC4H5 = iC4H5                                  2.40E+60     -16.08     47500.  !USC Mech II 
     PLOG/ 0.013                               2.40E+60     -16.08     47500./ !USC Mech II 
     PLOG/ 0.026                               1.30E+62     -16.38     49600./ !USC Mech II  
     PLOG/ 0.118                               4.90E+66     -17.26     55400./ !USC Mech II  
     PLOG/ 1.000                               1.50E+67     -16.89     59100./ !USC Mech II  
     PLOG/ 10.00                               2.00E+60     -14.46     58600./ !USC Mech II   
nC4H5 + H = iC4H5 + H                          1.00E+14      0.0       0.0     !Peter's suggestion
!     PLOG/ 0.026                               1.00E+36     -6.26      17486./ !RRKMWAN/FRE
!     PLOG/ 0.118                               1.00E+34     -5.61      18476./ !RRKM WAN/FRE
!     PLOG/ 1.000                               3.10E+26     -3.35      17423./ !RRKM WAN/FRE 
!C2H3+C2H2 = nC4H5                              1.320e+12    0.160   8312.62    !Pitsch 20131205
C2H3+C2H2 = nC4H5                              2.25e+24     -11.50     16230.1    !caculated from Miller .et al
!C2H3+C2H2 = C4H4+H                             7.20E+13     -0.48      6100.   !RRKM WAN/FRE
!     PLOG/ 0.013                               7.20E+13     -0.48      6100./ 
!     PLOG/ 0.026                               5.00E+14     -0.71      6700./ 
!     PLOG/ 0.118                               4.60E+16     -1.25      8400./ 
!     PLOG/ 1.000                               2.00E+18     -1.68     10600./ 
!     PLOG/ 10.00                               4.90E+16     -1.13     11800./
C2H3+C2H2 = C4H4+H                             1.23E-06     -1.483     12338   !caculated from Miller .et al
C2H2+C2H3+M=iC4H5+M                            7.630E+40    -7.760   12000.0                                                                                                         
!C4H4+H=iC4H5                                   6.10E+53    -13.19   14200.     !RRKM WAN/FRE
! PLOG/ 0.013                                   6.10E+53    -13.19   14200./
! PLOG/ 0.026                                   9.60E+52    -12.85   14300./
! PLOG/ 0.118                                   2.10E+52    -12.44   15500./
! PLOG/ 1.000                                   4.90E+51    -11.92   17700./
! PLOG/ 10.00                                   1.50E+48    -10.58   18800./
iC4H5 = C4H4+H                                 4.88E+70    -16.22   78783   !caculated from Miller .et al
OH+C4H4=>CO+aC3H5                              3.00E+13    0.00      0.0       !                                                    
!C4H4+H = nC4H5                                 1.20E+51 -12.57     12300.      !RRKM WAN/FRE     
!     PLOG/ 0.013                               1.20E+51 -12.57     12300./     
!     PLOG/ 0.026                               4.20E+50 -12.34     12500./     
!     PLOG/ 0.118                               1.10E+50 -11.94     13400./    
!     PLOG/ 1.000                               1.30E+51 -11.92     16500./        
!     PLOG/ 10.00                               6.20E+45 -10.08     15800./
nC4H5 = C4H4+H                                 1.29E+55    -12.95   54996   !caculated from Miller .et al
C2H3+C2H3<=>iC4H5+H                            1.50E+30  -4.95     12958.
PLOG / 2.63E-2                                 1.50E+30  -4.95     12958. /
PLOG / 0.12                                    7.20E+28  -4.49     14273. /
PLOG / 1.0                                     1.20E+22  -2.44     13654. /
C2H3+C2H3<=>nC4H5+H                            1.10E+24  -3.28     12395.
PLOG / 2.63E-2                                 1.10E+24  -3.28     12395. /
PLOG / 0.12                                    4.60E+24  -3.38     14650. /
PLOG / 1.0                                     2.40E+20  -2.04     15361. /
iC4H5+H = C4H4+H2                              3.0E+13       0.00         0.    !USC Mech II (97WAN/FRE)
iC4H5+H = C3H3+CH3                             2.00E+13      0.0       2000.    !USC Mech II (Estimated)
C4H5-2=C4H4+H                                  3.33E+20     -3.125     47560    !EST
nC4H5+OH = C4H4+H2O                            2.00E+12      0.00         0.    !97WAN/FRE
nC4H5+HCO = C4H6+CO                            5.00E+12      0.0          0.    !97WAN/FRE
nC4H5+HO2 = C2H3+CH2CO+OH                      6.60E+12      0.0          0.    !97WAN/FRE
nC4H5+H2O2 = C4H6+HO2                          1.21E+10      0.0       -596.    !97WAN/FRE
nC4H5+HO2 = C4H6+O2                            6.00E+11      0.0          0.    !Estimated
nC4H5+O2 = HCO+C2H3CHO                         9.20E+16     -1.39      1010.    != C2H3+O2=>HCO+CH2O
iC4H5+OH<=>C4H4+H2O                            4.0E+12       0.00        0.
iC4H5+HCO<=>C4H6+CO                            5.00E+12      0.0         0.
iC4H5+HO2<=>C4H6+O2                            6.000E+11     0.00        0.
iC4H5+HO2=>C2H3+CH2CO+OH                       6.60E+12      0.0         0.
iC4H5+H2O2<=>C4H6+HO2                          1.21E+10      0.000      -596.
iC4H5+O2<=>CH2CO+CH2CHO                        2.16E+10      0.00        2500.
O2+iC4H5=>C2H3CHO+HCO                          2.500E+13     0.000    15000.0   !ranzi
iC4H5+O2=aC3H4+CO+OH                           5.000E+12     0.0      15000.0
iC4H5+O2=pC3H4+CO+OH                           5.000E+12     0.0      15000.0
OH+P-C6H4O2=>H2O+C2H2+C2H+CO+CO               .1398E+08      2.0   2076.14      !20131021
nC4H5+H  = C4H5-2 + H                          1.0E14        0.00      0 !  Alzueta  CH2CHCHC.H=nC4H5  CH2CHC.CH2=C4H5-2
nC4H5+O2 =>      C.HCHCHO+CH2O                 1.0E12        0.00      0 !  Alzueta 
nC4H5+O2 =>      C4H4+HO2                      1.0E07        2.00  10000 !  Alzueta 
C4H5-2(+M)=C4H4+H(+M)                          1.0E14        0.00  50000 !  Alzueta 
    LOW/2.0E15  0.0  42000./
    H2/2/ CO/2/ CO2/3/  H2O/5/
C4H5-2+H  =  C3H3+CH3                          1.0E14        0.00      0 !  Alzueta 
C4H5-2+OH  =  C4H4+H2O                         3.0E13        0.00      0 !  Alzueta


!*********************************************** Reaction of C4H4 ******************************************************
H2CC+C2H2(+M) = C4H4(+M)                       3.50E+05      2.055    -2400.    !USC Mech II (99LAS/WAN)
                                         LOW  /1.40E+60     -12.599    7417.    /
                                      TROE /0.98 560.     580.      4164.    /
                      H2/2.0/ CH4/2.0/ H2O/6.0/ C2H2/3.0/ CO/1.5/ C2H4/3.0/ C2H6/3.0/ CO2/2.0/
C2H3+C2H = C4H4                                1.00E+14      0.00      0.       !1988 Duran
aC3H5+CH = C4H4+H2                             1.00E+13      0.0       0.0      
C3H3+CH2* = C4H4+H                             4.00E+13      0.0       0.0      !2007 Gueniche  & Glaude & Fournet & Battin
C4H4+H = nC4H3+H2                              6.65E+05      2.53      12240.   !USC Mech II (97WAN/FRE)
C4H4+H = iC4H3+H2                              3.33E+05      2.53      9240.    !USC Mech II (97WAN/FRE)
C3H3+CH2=C4H4+H                                5.00E+13      0.00      0.       !2007 Gueniche  & Glaude & Fournet & Battin(1992 Miller)
C3H2+CH3=C4H4+H                                5.00E+12      0.00      0.       !USC Mech II
C4H4+OH = nC4H3+H2O                            3.10E+07       2.0       3430.   !97WAN/FRE
C4H4+OH = iC4H3+H2O                            1.55E+07       2.0       430.    !97WAN/FRE    
C4H4+O = C3H3+HCO                              6.000E+08     1.450     -860     ! = C4H6+O   
C4H4+O2=nC4H3+HO2                              1.000E+13    0.00   63200.0      !(Est Walker95)      
C4H4+O2=iC4H3+HO2                              1.000E+13    0.00   44640.0      !(Est Walker95)      
C4H4+HO2=nC4H3+H2O2                            2.000E+11    0.00   12600.0      !(Estc4h6)          
C4H4+HO2=iC4H3+H2O2                            1.000E+11    0.00    9920.0      !(Estc4h6)          
C4H4+HO2=C3H3+HCO+OH                           4.000E+11    0.00    8000.0      !(=c2h4+ho2*2)  
C4H4+O  =  C2H3+HCCO                           1.4E07  2.00   1900              !added from Alzueta mech 
!*********************************************** reactions of C4H3 *****************************************************
C2H2+C2H(+M) = nC4H3(+M)                       8.30E+10      0.899    -363.00   !USC Mech II (92WAN)
                                         LOW  /1.240E+31    -4.718     1871.00  /
                                        TROE /1.0 100.      5613.     13387.   /
                                   H2/2.0/ H2O/6.0/ CH4/2.0/ CO/1.5/ CO2/2.0/ C2H6/3.0/ 
                                                            C2H2/2.5/ C2H4/2.5/  
C2H2+C2H(+M) = iC4H3(+M)                       8.30E+10      0.899     -363.00  !USC Mech II (92WAN)
                                         LOW  /1.240E+31    -4.718      1871.00  /
                                      TROE /1.0 100.     5613.      13387.   /
                                   H2/2.0/ H2O/6.0/ CH4/2.0/ CO/1.5/ CO2/2.0/ C2H6/3.0/ 
                                                                    C2H2/2.5/ C2H4/2.5/
C3H3+CH = nC4H3+H                              5.00E+13     0.0        0.0      !USC Mech II (Estimated)
C3H3+CH = iC4H3 +H                             5.00E+13     0.0        0.0
C3H2+CH2 = nC4H3+H                             5.00E+13     0.0        0.       !USC Mech II (92MIL/MEL)
C2H2+C2H2 = C4H2+H2                            1.50E+13     0.0        42700    !2007 Gueniche  & Glaude & Fournet & Battin(Leung 95) 13
C2H2+C2H = C4H2+H                              9.60E+13     0.00       0.00     !USC Mech II (91SHI/MIC, 92KOS/FUK, 93FAR/MOR)
C2H2+C2H2=C4H4                                 1.89E58     -13.60    62790.0    !MIT W.H. Green    1.89E58
nC4H3+H  =  iC4H3+H                            1.0E14  0.00      0 !  added from Alzueta mech
nC4H3+OH = C4H2+H2O                            1.0E13  0.00      0 !  added from Alzueta mech 
nC4H3+O2  =  C2H2+CO+HCO                       3.0E12  0.00      0 !  added from Alzueta mech 
iC4H3(+M)  =  C4H2+H(+M)                   1.0E14  0.00  55000     !  added from Alzueta mech
    LOW/2.0E15  0.0  48000./
    H2/2/ CO/2/ CO2/3/  H2O/5/
iC4H3+H  =  C4H2+H2                             5.0E13  0.00      0 !   added from Alzueta mech
iC4H3+O  =  CH2CO+C2H                           2.0E13  0.00      0 !   added from Alzueta mech
iC4H3+O  =  H2C4O+H                             2.0E13  0.00      0 !   added from Alzueta mech
iC4H3+CH2  =  pC3H4+C2H                         2.0E13  0.00      0 !   added from Alzueta mech
!**************************************** reactions of C4H2  ***********************************************************************************
C4H2 + H = nC4H3                               1.70E+49   -11.67     12804.0    !RRKM WAN/FRE
           plog/0.026                          1.70E+49   -11.67     12804.0/   !0.026 atm RRKM WAN/FRE
           plog/0.118                          3.30E+50   -11.80     15010.0/   !0.118 atm RRKM WAN/FRE
           plog/1.00                           1.10E+42    -8.72     15300.0/   !1 atm RRKM WAN/FRE           
C4H2 + H = iC4H3                               4.30E+45   -10.15     13250.0    !RRKM WAN/FRE
           plog/0.026                          4.30E+45   -10.15     13250.0/   !0.026 atm RRKM WAN/FRE
           plog/0.118                          2.60E+46   -10.15     15500.0/   !0.118 atm RRKM WAN/FRE
           plog/1.00                           1.10E+30    -4.92     10800.0/   !1 atm RRKM WAN/FRE            
C4H2 + OH= CO + C3H3                           2.11E+23   -3.47      3820       !J.P. Senosiain and S.J. Klippenstein and J.A. Miller 2007
C4H2 + OH= H2C4O +H                            8.19E+16   -1.59      2116       !J.P. Senosiain and S.J. Klippenstein and J.A. Miller 2007  8.19E+16     
H2C4O+H<=>C2H2+HCCO                            5.00E+13     0.0      3000.0     !J.A. MiLLER 92
H2C4O+OH<=>CH2CO+HCCO                          1.00E+07     2.0      2000.0!    !J.A. MiLLER 92 
C4H2+O=C3H2+CO                                 1.200E+12    0.0       0.0       !J.A. MiLLER 89 
iC4H3+H<=>C2H2+H2CC                            2.80E+23    -2.55     10780.0    !J.A. MiLLER 92
iC4H3+OH = C4H2+H2O                            4.00E+12     0.00       0.       != C2H3+OH
iC4H3+O2 = HCCO+CH2CO                          7.86E+16    -1.80       0.       !89SLA/BER
iC4H3+CH2<=>aC3H4+C2H                          2.0E+13      0.0        0.0      !ziegler et al. j. anal.apply.pyrolysis 73 212-230 (2005)   
C4H2+OH  =  C4H+H2O                            1.0E07  2.00   1000 !   added from Alzueta mech
!######################################   #C3 reactions  ##########################################################################################
!*************************************** reactions of C3H8(propane)   **********************************************************************************
C2H5+CH3(+M) = C3H8(+M)                        4.90E+14    -0.50        0.0     !88TSA
                                        LOW  / 6.80E+61   -13.42     6000.0    /
                                        TROE / 1.000  1000.0  1433.9  5328.8 /
                           H2/2/ H2O/6/ CH4/2/ CO/1.5/ CO2/2/ C2H6/3/ AR/0.7/                                                                               
iC3H7+H(+M) = C3H8(+M)                         2.40E+13   0.00        0.0       !88TSA
                                        LOW  / 1.70E+58 -12.08    11263.7    /
                                      TROE / 0.649  1213.1  1213.1 13369.7 /
                           H2/2/ H2O/6/ CH4/2/ CO/1.5/ CO2/2/ C2H6/3/ AR/0.7/ 
nC3H7+H(+M) = C3H8(+M)                         3.60E+13   0.00        0.0       !88TSA
                                        LOW  / 3.01E+48  -9.32     5833.6    /
                                             TROE / 0.498  1314.0  1314.0 50000.0 /
                           H2/2/ H2O/6/ CH4/2/ CO/1.5/ CO2/2/ C2H6/3/ AR/0.7/                                                        
C3H8+O2<=>iC3H7+HO2                            2.000e+13   0.000     4.964e+04
C3H8+O2<=>nC3H7+HO2                            6.000e+13   0.000     5.229e+04
H+C3H8<=>H2+iC3H7                              1.300e+06   2.400     4.471e+03
H+C3H8<=>H2+nC3H7                              3.490e+05   2.690     6.450e+03
C3H8+O<=>iC3H7+OH                              5.490e+05   2.500     3.140e+03
C3H8+O<=>nC3H7+OH                              3.710e+06   2.400     5.505e+03
C3H8+OH<=>nC3H7+H2O                            1.054e+10   0.970     1.586e+03
C3H8+OH<=>iC3H7+H2O                            4.670e+07   1.610    -3.500e+01
C3H8+HO2<=>iC3H7+H2O2                          6.320e+01   3.370     1.372e+04
C3H8+HO2<=>nC3H7+H2O2                          4.080e+01   3.590     1.716e+04
CH3+C3H8<=>CH4+iC3H7                           6.400e+04   2.170     7.520e+03
CH3+C3H8<=>CH4+nC3H7                           9.040e-01   3.650     7.154e+03 
iC3H7+C3H8<=>nC3H7+C3H8                        3.000e+10   0.000     1.290e+04
C2H3+C3H8<=>C2H4+iC3H7                         1.000e+11   0.000     1.040e+04
C2H3+C3H8<=>C2H4+nC3H7                         1.000e+11   0.000     1.040e+04
C2H5+C3H8<=>C2H6+iC3H7                         1.000e+11   0.000     1.040e+04
C2H5+C3H8<=>C2H6+nC3H7                         1.000e+11   0.000     1.040e+04
C3H8+aC3H5<=>nC3H7+C3H6                        7.940e+11   0.000     2.050e+04
C3H8+aC3H5<=>iC3H7+C3H6                        7.940e+11   0.000     1.620e+04
!*************************************** reactions of C3H7 **************************************************************
C3H6+H=nC3H7                                   7.98E+81	  -23.61	   22239       !J.A. Miller and S.J. Klippenstein 2013
  PLOG/ 0.0013                                 7.98E+81	  -23.61	   22239/      
  PLOG/ 0.0013                                 1.85E+26	  -5.8268	   3.87E+03/
  PLOG/ 0.0395                                 4.24E+68	  -18.427	   19665/   
  PLOG/ 0.0395                                 2.82E+30	  -6.4945	   5470.8/  
  PLOG/ 1.0000                                 1.04E+49	  -11.5	     15359/     
  PLOG/ 1.0000                                 3.78E+28	  -5.5685	   5625.1/  
  PLOG/ 10.0000                                6.20E+41	  -8.8921	   14637/   
  PLOG/ 10.0000                                1.46E+25	  -4.28	     5247.8/         
C2H4+CH3=nC3H7                                 8.66E+48	  -12.541	   18206        !J.A. Miller and S.J. Klippenstein 2013
  PLOG/ 0.0013                                 8.66E+48	  -12.541	   18206/  
  PLOG/ 0.0013                                 1.12E+43	  -11.304	   13080/
  PLOG/ 0.0395                                 1.06E+49	  -12.035	   20001/
  PLOG/ 0.0395                                 7.28E+39	  -9.8804	   13164/
  PLOG/ 1.0000                                 7.67E+47	  -11.169	   22366/ 
  PLOG/ 1.0000                                 2.60E+33	  -7.4621	   12416/
  PLOG/ 10.0000                                1.81E+45	  -10.03	   23769/
  PLOG/ 10.0000                                3.85E+27	  -5.3849	   11455/    
C3H6+H=iC3H7                                   1.35E+44	-10.678	 8196.4           !J.A. Miller and S.J. Klippenstein 2013 
  PLOG/ 0.0013                                 1.35E+44	-10.678	 8196.4/ 
  PLOG/ 0.0013                                 2.17E+130	-32.584	 136140/
  PLOG/ 0.0395                                 2.11E+57	-14.227  15147/ 
  PLOG/ 0.0395                                 2.25E+29	-5.8425	 4241.9/
  PLOG/ 1.0000                                 3.26E+61	-14.944	 20161/ 
  PLOG/ 1.0000                                 1.06E+30	-5.6316	 5613.4/
  PLOG/ 10.0000                                5.29E+56	-13.122	 20667/ 
  PLOG/ 10.0000                                6.11E+26	-4.4425	 5182.3/
  PLOG/ 100.0000                               1.11E+50	-10.803	 20202/ 
  PLOG/ 100.0000                               2.73E+23	-3.2608	 4597.7/                                                                         
iC3H7+H = CH3+C2H5                             5.90E+23     -2.81   10009.0       !88TSA RRKM 0.1 atm
         PLOG/0.1                              5.90E+23     -2.81   10009.0/ 
         PLOG/1.0                              1.40E+28     -3.94   15916.0/      !88TSA RRKM 1 atm
         PLOG/10                               4.00E+24     -2.83   17542.0/      !88TSA RRKM 10 atm
iC3H7+H = C3H6+H2                              3.20E+12      0.00        0.0      !88TSA
iC3H7+O = CH3CHO+CH3                           9.60E+13      0.00        0.0      !88TSA
iC3H7+OH = C3H6+H2O                            2.40E+13      0.00        0.0      !88TSA
iC3H7+O2 = C3H6+HO2                            1.30E+11      0.00        0.0      !88TSA 
iC3H7+HO2 = CH3CHO+CH3+OH                      2.40E+13      0.00        0.0      !88TSA 
iC3H7+HCO = C3H8+CO                            1.20E+14      0.00        0.0      !88TSA
iC3H7+CH3 = CH4 + C3H6                         2.20E+14     -0.68        0.0      !88TSA
nC3H7+O2 = C3H6+HO2                            3.00E-19      0.000       3000.0   !Curran 14    
!********************************************** reactions of C3H6 ********************************************************
C2H3+CH3 (+M) = C3H6(+M)                       2.50E+13     0.000     0.00        !USC Mech II (86TSA/HAM)
                                         LOW  /4.270E+58   -11.940    9769.80 /
                                         TROE /0.175  1340.6  60000.0   10139.8 /
                                    H2/2/ H2O/6/ CH4/2/ CO/1.5/ CO2/2/ C2H6/3/ AR/0.7/
                                                            C2H2/3.00/ C2H4/3.00/
aC3H5+H(+M) = C3H6(+M)                         2.00E+14      0.00      0.0        !USC Mech II (91TSA)
                                        LOW  / 1.33E+60     -12.00     5967.8  /
                                         TROE / 0.020  1096.6  1096.6  6859.5 /
                                   H2/2/ H2O/6/ CH4/2/ CO/1.5/ CO2/2/ C2H6/3/ AR/0.7/                                     
C3H6+H = aC3H5+H2                              1.73E+05     2.50      2490.0      !USC Mech II (91TSA)                                                                         
C3H6+H = CH3CCH2+H2                            1.49E+04	    3.381	    8909.5      !J.A. Miller and S.J. Klippenstein 2013 
C3H6+H = CH3CHCH+H2                            5.10E+02	    3.234	    12357       !J.A. Miller and S.J. Klippenstein 2013 
 DUPLICATE
C3H6+H = CH3CHCH+H2                            3.97E+02	    3.252	    12007       !J.A. Miller and S.J. Klippenstein 2013 
 DUPLICATE            
C3H6+CH3 = CH3CCH2+CH4                         8.40E-01     3.50      11660.0     !USC Mech II (91TSA)
C3H6+CH3 = CH3CHCH+CH4                         1.35E+00     3.50      12848.0     !USC Mech II (91TSA)
C3H6+H = C2H4+CH3                              1.54E+09	   1.3549	  2542          !J.A. Miller and S.J. Klippenstein 2013 
        PLOG/ 0.0013                           1.54E+09	   1.3549	  2542/  
        PLOG/ 0.0395                           7.88E+10	   0.87	    3599.6/  
        PLOG/ 1.000                            2.67E+12	   0.4736	  5431.1/
        PLOG/ 10.00                            9.25E+22	   -2.5495	12898/ 
        PLOG/ 10.00                            1.24E+05	   2.5154	  3679.1/
        PLOG/ 100.0                            1.32E+23	   -2.4248	16500/ 
        PLOG/ 100.0                            2.51E+03	   2.9088	  3980.9/ 
C3H6+CH3 = aC3H5+CH4                           2.20E+00     3.50     5675.0       !USC Mech II (91TSA)
C3H6 = H2 + pC3H4                              1.18E+95    -23.6     125649       !2009 Kiefer et al.
C3H6 = H2 + aC3H4                              1.18E+95    -23.6     125649       !ref:C3H6 = H2 + pC3H4
C3H6+O = CH2CO+CH3+H                           0.80E+08     1.65      327.0       !USC Mech II (91TSA) 
C3H6+O = C2H3CHO+H+H                           0.40E+08     1.65      327.0       !USC Mech II (91TSA)  
C3H6+O = C2H5+HCO                              3.50E+07     1.65     -972.0       !USC Mech II (91TSA) 
C3H6+O = aC3H5+OH                              1.80E+11     0.70     5880.0       !USC Mech II (91TSA) 
C3H6+O = CH3CCH2+OH                            6.00E+10     0.70     7630.0       !USC Mech II (91TSA) 
C3H6+O = CH3CHCH+OH                            1.21E+11     0.70     8960.0       !USC Mech II (91TSA) 
C3H6+OH = aC3H5+H2O                            3.10E+06     2.00     -298.0       !USC Mech II (91TSA)
C3H6+OH = CH3CCH2+H2O                          1.10E+06     2.00     1450.0       !USC Mech II (91TSA) 
C3H6+OH = CH3CHCH+H2O                          2.14E+06     2.00     2778.0       !USC Mech II (91TSA) 
C3H6+C2H3 = C4H6+CH3                           7.23E+11     0.0      5000.0       !91TSA                                 
C3H6+HO2 = aC3H5+H2O2                          9.60E+03     2.60     13910.0      !91TSA                 
C3H6+HO2<=>CH3CHCH+H2O2                        1.800E+04    2.500    2.762E+04    !91TSA 
C3H6+HO2<=>CH3CCH2+H2O2                        9.000E+03    2.500    2.359E+04    !91TSA               
C3H6+O2      =  aC3H5+HO2                      2.0E13  0.00  47600 ! added from Alzueta mech                                        
C3H6+O2      =  CH3CHCH+HO2                    2.0E13  0.00  47600 ! added from Alzueta mech                                        
C3H6+O2      =  CH3CCH2+HO2                    2.0E13  0.00  47600 ! added from Alzueta mech  
!******************************************reactions of C3H5 ****************************************************************
C2H2+CH3=aC3H5                                 8.2E+53      -13.32     33200.     !2008 Miller & Senosiain & Klippenstein
    PLOG  /0.1                                 8.2E+53      -13.32     33200./
    PLOG  /1.                                  2.7E+53      -12.82     35700./
    PLOG  /10.                                 4.4E+49      -11.40     36700./
    PLOG  /100.                                3.8E+44      -9.63      37600./
pC3H4+H=aC3H5                                  1.1E+60      -14.56     28100.     !2008 Miller & Senosiain & Klippenstein
    PLOG  /0.1                                 1.1E+60      -14.56     28100./
    PLOG  /1.                                  4.9E+60      -14.37     31600./
    PLOG  /10.                                 2.2E+59      -13.61     34900./
    PLOG  /100.                                1.6E+55      -12.07     37500./
aC3H4+H=aC3H5                                  9.60E+61     -14.67     26000.0    !USC Mech II (99DAV/LAW RRKM)
    PLOG  /0.1                                 9.60E+61     -14.67     26000.0 /
    PLOG  /1.0                                 1.52E+59     -13.54     26949.0 /
    PLOG  /2.0                                 3.78E+57     -12.98     26785.0 /
    PLOG  /5.0                                 7.34E+54     -12.09     26187.0 /
    PLOG  /10.0                                2.40E+52     -11.30     25400.0 /
    PLOG  /100.0                               6.90E+41     -8.06      21300.0 /                                  
aC3H5 = CH3CCH2                                3.90E+59     -15.42     75400.0  
        PLOG/ 0.1                              3.90E+59     -15.42     75400.0/   !99DAV/LAW RRKM 
        PLOG/ 1.0                              7.06E+56     -14.08     75868.0/      
        PLOG/ 2.0                              4.80E+55     -13.59     75949.0/      
        PLOG/ 5.0                              4.86E+53     -12.81     75883.0/      
        PLOG/ 10.0                             6.40E+51     -12.12     75700.0/      
        PLOG/ 100.0                            2.80E+43      -9.27     74000.0/      
aC3H5 = CH3CHCH                                1.30E+55     -14.53     73800.0 
        PLOG/ 0.1                              1.30E+55     -14.53     73800.0/   !99DAV/LAW RRKM 
        PLOG/ 1.0                              5.00E+51     -13.02     73300.0/      
        PLOG/ 10.0                             9.70E+48     -11.73     73700.0/      
        PLOG/ 100.0                            4.86E+44      -9.84     73400.0/      
C2H5+C2H3 = aC3H5+CH3                          8.00E+25     -3.46      11775.0
        PLOG/ 0.1                              8.00E+25     -3.46      11775.0/   !86TSA/HAM RRKM 
        PLOG/ 1.0                              3.90E+32     -5.22      19747.0/      
        PLOG/ 10.0                             3.90E+29     -4.24      22311.0/       
aC3H5+H = aC3H4+H2                             9.56E+03      2.80      3291.11    !2009 Pitsch
aC3H5+CH3 = aC3H4+CH4                          3.00E+12     -0.32     -131.0      !2009 Kifer et al
aC3H5+aC3H5 = pC3H4+C3H6                       8.43E+10      0.0      -263        !2009 Kifer et al 
CH3CCH2 = CH3CHCH                              1.60E+44     -12.16     52200.0    !99DAV/LAW RRKM 
       PLOG/ 0.1                               1.60E+44     -12.16     52200.0/      
       PLOG/ 1.0                               1.50E+48     -12.71     53900.0/      
       PLOG/ 10.0                              5.10E+52     -13.37     57200.0/      
       PLOG/ 100.0                             5.80E+51     -12.43     59200.0/        
C2H2+CH3<=>CH3CHCH                             1.40E+32     -7.14     10000.0     !99DAV/LAW RRKM
        PLOG / 0.1                             1.40E+32     -7.14     10000.0 /   
        PLOG / 1.0                             3.20E+35     -7.76     13300.0 /   !99DAV/LAW RRKM
        PLOG / 10.0                            2.40E+38     -8.21     17100.0 /   !99DAV/LAW RRKM
        PLOG / 100.0                           1.40E+39     -8.06     20200.0 /   !99DAV/LAW RRKM
aC3H4+H<=>CH3CHCH                              1.10E+30     -6.52     15200.0     !99DAV/LAW RRKM
        PLOG / 0.1                             1.10E+30     -6.52     15200.0 /   !99DAV/LAW RRKM
        PLOG / 1.0                             5.40E+29     -6.09     16300.0 /   !99DAV/LAW RRKM
        PLOG / 10.0                            2.60E+31     -6.23     18700.0 /   !99DAV/LAW RRKM
        PLOG / 100.0                           3.20E+31     -5.88     21500.0 /   !99DAV/LAW RRKM
pC3H4+H<=>CH3CHCH                              1.00E+25     -5.00     1800.0      !99DAV/LAW RRKM
        PLOG / 0.1                             1.00E+25     -5.00     1800.0 /    !99DAV/LAW RRKM
        PLOG / 1.0                             5.50E+28     -5.74     4300.0 /    !99DAV/LAW RRKM
        PLOG / 10.0                            1.00E+34     -6.88     8900.0 /    !99DAV/LAW RRKM
        PLOG / 100.0                           9.70E+37     -7.63     13800.0 /   !99DAV/LAW RRKM
aC3H4+H=CH3CCH2                                9.2E+38      -8.65     7000.       !Miller and Klippenstein 2003
        PLOG  /0.1                             9.2E+38      -8.65     7000./
        PLOG  /1.                              9.5E+42      -9.43     11200./
        PLOG  /10.                             1.5E+45      -9.69     15100./
        PLOG  /100.                            1.8E+43      -8.78     16800./
        PLOG  /1.0E+5                          4.4E+09       1.45     2400./
pC3H4+H=CH3CCH2                                4.6E+44     -10.21     10200.      !Miller and Klippenstein 2003
        PLOG  /0.1                             4.6E+44     -10.21     10200./
        PLOG  /1.                              1.7E+47     -10.58     13700./
        PLOG  /10.                             7.0E+47     -10.40     16600./
        PLOG  /100.                            3.2E+44      -9.11     17400./
        PLOG  /1.0E+5                          1.7E+11       0.97     2800./        
C2H2+CH3 = CH3CCH2                             6.80E+20     -4.16     18000.0     !99DAV/LAW RRKM 
        PLOG/ 0.1                              6.80E+20     -4.16     18000.0/    !99DAV/LAW RRKM
        PLOG/ 1.0                              4.99E+22     -4.39     18850.0/    !99DAV/LAW RRKM 
        PLOG/ 2.0                              6.00E+23     -4.60     19571.0/    !99DAV/LAW RRKM 
        PLOG/ 5.0                              7.31E+25     -5.06     21150.0/    !99DAV/LAW RRKM 
        PLOG/ 10.0                             9.30E+27     -5.55     22900.0/    !99DAV/LAW RRKM 
        PLOG/ 100.0                            3.80E+36     -7.58     31300.0/    !99DAV/LAW RRKM  
CH3CCH2+H = aC3H5+H                            1.47E+13      0.26      4103       !Ref aC3H4+H=pC3H4+H
CH3CHCH+H = aC3H5+H                            1.47E+13      0.26      4103       !Ref H+aC3H4=H+pC3H4
CH3CHCH+O2<=>CH3CHO+HCO                        1.00E+11      0.0        0.0       !Laskin et al.2000
aC3H5+OH = aC3H4+H2O                           6.00E+12      0.00        0.0      !91TSA
C2H3+CH3 = aC3H5+H                             1.500E+24    -2.830    18618.0     !86TSA/HAM
aC3H5+HO2<=>C3H5O+OH                           7.000E+12     0.000    -1.000E+03  !Glaude,P.A. et al,Proc. combust. inst
aC3H5+HO2=C2H3CHO+H+OH                        1.0E13       0.00      0           !Alzueta
!aC3H5+O=C2H3CHO+H                             1.8E14        0.00     0           !Alzueta
!aC3H5+O2=C2H3CHO+OH                           1.8E13      -0.41            22860 !Alzueta   
aC3H5+O2=C2H2+CH2O+OH                          2.8E25      -4.80            15470 !Alzeuta
CH3CHCH+H=pC3H4+H2                             2.0E13       0.00                0 !Alzueta  
CH3CHCH+OH=pC3H4+H2O						   1.0E13       0.00         0        !Alzueta 
CH3CCH2+H=aC3H4+H2                             4.0E13       0.00                0 !Alzeuta
CH3CCH2+O=CH2CO+CH3                            1.0E14       0.00                0 !Alzeuta  
CH3CCH2+OH=pC3H4+H2O                           2.0E13                 0.00      0 !Alzeuta     
CH3CCH2+O2=CH3CO+CH2O                          1.1E22                -3.29   3900 !Alzeuta   
C3H5O<=>C2H3CHO+H                              1.000E+14     0.000    2.910E+04   !shielded for flame speed 
C2H3+CH2O<=>C3H5O                              1.500E+11     0.000    1.060E+04   !shieled 
aC3H5+O2=CH2CHO+CH2O                           1.060E+10     0.30     12838.0     ! Bozzelli and Dean 1993 1 bar
aC3H5+O2<=>aC3H4+HO2                           4.99E+15     -1.40     22428.0     ! Bozzelli and Dean 1993
      PLOG / 1.0                               4.99E+15     -1.40     22428.0 /   ! Bozzelli and Dean 1993
      PLOG / 10.0                              2.18E+21     -2.85     30755.0 /   ! Bozzelli and Dean 1993
aC3H5+O2<=>CH3CO+CH2O                          1.19E+15     -1.01     20128.0     ! Bozzelli and Dean 1993
      PLOG / 1.0                               1.19E+15     -1.01     20128.0 /   ! Bozzelli and Dean 1993
      PLOG / 10.0                              7.14E+15     -1.21     21046.0 /   ! Bozzelli and Dean 1993
aC3H5+O2<=>C2H3CHO+OH                          1.82E+13     -0.41     22859.0     ! Bozzelli and Dean 1993
      PLOG / 1.0                               1.82E+13     -0.41     22859.0 /   ! Bozzelli and Dean 1993
      PLOG / 10.0                              2.47E+13     -0.45     23017.0 /   ! Bozzelli and Dean 1993 
aC3H5+O<=>C2H3CHO+H                            6.00E+13      0.0      0.0         ! Tsang 1991 J. Phys. Chem. Ref. Data vol. 20 pp. 221-273 
aC3H5+CH2=C4H6+H                               3.000E+13     0.00     0.0         ! (91TSA) 
OH+C2H3CHO=>CO2+C2H4+H                         8.000E+12     0.00     0.0         ! ranzi  
OH+C2H3CHO=>CH3CHO+HCO                         8.000E+12     0.00     0.0         ! 20131016
C2H3CHO+H=C2H4+HCO                             2.0e+13       0.0      3500.0      !marinov et al. combust sci tech 116:211
C2H3CHO=>HCO+C2H3                              .3000E+17    .000  90000.0
HO2+C2H3CHO=>CH2CO+CH2O+OH                     .5000E+13    .000  15000.0
HCO+C2H3=>C2H3CHO                              .4000E+13    .000       .0
O+A1O=>2CO+iC4H5                               .1000E+15    .000       .0
!************************************* reactions of C3H4 *********************************************************
pC3H4 = aC3H4                                   6.40E+61   -14.59      88200.0    !99DAV/LAW RRKM                             
      PLOG /0.1                                 6.40E+61   -14.59      88200.0 /  !99DAV/LAW RRKM 0.1 atm 
      PLOG/ 0.4                                 5.81E+62   -14.63      91211.0 /  !99DAV/LAW RRKM 0.4 atm 
      PLOG/ 1.0                                 5.15E+60   -13.93      91117.0 /  !99DAV/LAW RRKM 1 atm   
      PLOG/ 2.0                                 7.64E+59   -13.59      91817.0 /  !99DAV/LAW RRKM 2 atm   
      PLOG/ 5.0                                 3.12E+58   -13.07      92680.0 /  !99DAV/LAW RRKM 5 atm   
      PLOG/ 10.0                                1.90E+57   -12.62      93300.0 /  !99DAV/LAW RRKM 10 atm  
      PLOG/ 100                                 1.40E+52   -10.86      95400.0 /  !99DAV/LAW RRKM 100 atm 
C3H3+H=pC3H4                                    3.6308E+36 -7.36       6039.      !2008 Miller & Senosiain & Klippenstein
      PLOG  /0.03947                            3.6308E+36 -7.36       6039./
      PLOG  /1.                                 7.943E+29  -5.06       4861./
      PLOG  /10.                                1.072E24   -3.15       3261./
C3H3+H=aC3H4                                    3.3884E+36 -7.41       6337.      !2008 Miller & Senosiain & Klippenstein
      PLOG  /0.03947                            3.3884E+36   -7.41       6337./
      PLOG  /1.                                 3.1623E+29   -5.         4711./
      PLOG  /10.                                8.7096E+23   -3.20       3255./      
aC3H4+H = C3H3+H2                               6.60E+03      3.1        5522     !2008 Miller & Senosiain & Klippenstein
pC3H4+H = C3H3+H2                               3.57E+04      2.8        4821     !2008 Miller & Senosiain & Klippenstein
aC3H4+CH3 = C3H3+CH4                            6.61E-04      5          8300     !2009 Kiefer et al.
pC3H4+CH3 = C3H3+CH4                            2.19E-04      5          8300     !2009 Kiefer et al.
pC3H4+H<=>aC3H4+H                               2.30E+15   -0.26       7600.0     !99DAV/LAW RRKM   
      PLOG / 0.1                                2.30E+15   -0.26       7600.0 /   !99DAV/LAW RRKM  
      PLOG / 1.0                                6.27E+17   -0.91      10079.0 /   !99DAV/LAW RRKM  
      PLOG / 2.0                                1.50E+18   -1.00      10756.0 /   !99DAV/LAW RRKM  
      PLOG / 5.0                                1.93E+18   -1.01      11523.0 /   !99DAV/LAW RRKM  
      PLOG / 10.0                               3.10E+22   -2.18      14800.0 /   !99DAV/LAW RRKM  
      PLOG / 100.0                              6.40E+27   -3.58      21200.0 /   !99DAV/LAW RRKM 
pC3H4+H(+M)  =  CH3CCH2(+M)                     6.5E12  0.00                 2000 ! Alzueta  
    LOW/8.5E39 -7.27   6580./
    TROE/0.7086 134 1784 5740/	  
! **********************************************************************************************************************************
C2H2+CH3 = pC3H4+H                              2.51E+11    0.56      15453.0     !99DAV/LAW RRKM                         
       PLOG / 0.1                               4.50E+06    1.86      11600.0 /   !99DAV/LAW RRKM 0.1 atm 
       PLOG / 1                                 2.56E+09    1.10      13644.0 /   !99DAV/LAW RRKM 1 atm 
       PLOG / 2                                 2.07E+10    0.85      14415.0 /   !99DAV/LAW RRKM 2 atm   
       PLOG /5                                  2.51E+11    0.56      15453.0 /   !99DAV/LAW RRKM 5 atm   
       PLOG /10                                 1.10E+12    0.39      16200.0 /   !99DAV/LAW RRKM 10 atm  
       PLOG /100                                2.10E+12    0.37      18100.0 /   !99DAV/LAW RRKM 100 atm              
C2H2+CH3 = aC3H4+H                              2.40E+09    0.91      20700.0
       PLOG /0.1                                2.40E+09    0.91      20700.0 /   !99DAV/LAW RRKM 0.1 atm            
       PLOG /1                                  5.14E+09    0.86      22153.0 /   !99DAV/LAW RRKM 1 atm    
       PLOG /2                                  1.33E+10    0.75      22811.0 /   !99DAV/LAW RRKM 2 atm    
       PLOG /5                                  9.20E+10    0.54      23950.0 /   !99DAV/LAW RRKM 5 atm    
       PLOG /10                                 5.10E+11    0.35      25000.0 /   !99DAV/LAW RRKM 10 atm   
       PLOG /100                                7.30E+12    0.11      28500.0 /   !99DAV/LAW RRKM 100 atm             
!**************************************************************************************************************
aC3H4+O = C2H4+CO                               2.00E+07    1.8       1000.0      !USC Mech II (98DAV/LAW )
aC3H4+OH = C3H3+H2O                             5.30E+06    2.0       2000.0      !USC Mech II (97WAN/FRE )
aC3H4+HO2<=>C2H4+CO+OH                          1.000E+12   0.00      1.400E+04   !add 20121020  3-pentone oxidation
                                           REV/ 1.000E+00   0.00      0.000E+00 /
aC3H4+HO2<=>C3H3+H2O2                           3.000E+13   0.00      1.400E+04   !add 20121020
                                           REV/ 1.551E+16  -1.38      4.400E+04 /
pC3H4+O = HCCO+CH3                              0.73E+13    0.0       2250.0      !USC Mech II (96ADU/BLU#)
pC3H4+O = C2H4+CO                               1.00E+13    0.0       2250.0      !USC Mech II (96ADU/BLU#)
pC3H4+OH = C3H3+H2O                             1.00E+06    2.0       100.0       !USC Mech II (98DAV/LAW )
!*****************************************    reactions of C3H3 C3H2 ***************************************************
C3H2+H(+M)<=>C3H3(+M)                           1.02e+13      0.27      279.64    !2009 Pitsch
                                          LOW  /2.80e+30     -3.860     3319.79 /                          
                                          TROE /0.782 207.50  2663.00   6095.00 / 
                                     H2/2.00/ H2O/12.00/ CO2/3.60/ CO/1.75/ AR/0.70/
                                                                CH4/2.00/ C2H6/3.00/
C3H3+H = C3H2+H2                                5.00E+13       0.0       1000.    !USC Mech II
C3H3+OH = C3H2+H2O                              2.00E+13       0.0        0.      !USC Mech II
CH3+C2H = C3H3+H                                2.41E+13       0.0       0.0      !USC Mech II (86TSA/HAM)
C2H2+CH2 = C3H3+H                               1.20E+13       0.00      6620.00  !USC Mech II (88BOH/TEM; 86FRA/BHA)
C2H2+CH2* = C3H3+H                              2.00E+13       0.00      0.00     !USC Mech II (97WAN/FRE)
C3H3+O = CH2O+C2H                               2.00E+13       0.0        0.0     !89MIL/BOW
C3H3+O2 = CH2CO+HCO                             3.00E+10       0.0     2868.0     !88SLA/GUT
C3H3+HO2 = OH+CO+C2H3                           8.00E+11       0.0        0.0     !Estimated
C3H3+HO2 = aC3H4+O2                             3.00E+11       0.0        0.0     !99DAV/LAW 
C3H3+HO2 = pC3H4+O2                             2.50E+12       0.0        0.0     !99DAV/LAW 
C3H3+HCO = aC3H4+CO                             2.50E+13       0.0        0.0     !Estimated
C3H3+HCO = pC3H4+CO                             2.50E+13       0.0        0.0     !Estimated
C3H3+HCCO = C4H4+CO                             2.50E+13       0.0        0.0     !Estimated 
C3H2+O=C2H2+CO                                  6.80E+13       0.0         0.0
C3H2+OH=HCO+C2H2                                6.80E+13       0.0         0.0
C3H2+O2=HCCO+H+CO                               2.00E+12       0.0      1000.0
C3H2+O2 = HCO+HCCO                              5.000E+13      0.00    0.000E+00
C3H2+CH=C4H2+H                                  5.00E+13       0.0         0.0
C3H2+HCCO=nC4H3+CO                              1.00E+13       0.0         0.0

!*****************************************************************************
!    H2/O2 subset                                                             *
! *****************************************************************************
H+O2=O+OH                             9.6E14   -.200   16625 ! POLIMI 2014
!H+O2=O+OH                            1.0E14   0.000   15286 !
! Hong et al., Proc. Comb. Inst. 33:309-316 (2011)
!
O+H2=OH+H                            3.8E12   0.000    7948 ! 
 DUPLICATE                                                  !
O+H2=OH+H                            8.8E14   0.000   19175 ! 
 DUPLICATE                                                  !
! Baulch DL Bowman CT Cobos CJ Cox RA Just Th Kerr JA Pilling MJ Stocker D Troe J Tsang W Walker RW Warnatz J JPCRD 34:757-1397 2005
!
OH+H2=H+H2O                          2.2E08   1.510    3430 ! 
! Michael and Sutherland, J. Phys. Chem. 92:3853 (1988)
!
OH+OH=O+H2O                          1.4E07   1.689   -1167 !
 DUPLICATE
OH+OH=O+H2O                         -2.7E10   0.567       0 !
 DUPLICATE
! M. Sangwan, L. N. Krasnoperov, J Phys Chem A 116 (2012) 11817?1822.
!
H2+M=H+H+M                           4.6E19  -1.400  104380 !
 H2/2.5/ H2O/12/ CO/1.9/ CO2/3.8/ AR/0.0/ 
H2+AR=H+H+AR                         5.8E18  -1.100  104380 !
! Tsang and Hampson, J. Phys. Chem. Ref. Data, 15:1087 (1986) 
!
H+O+M=OH+M                           4.7E18  -1.000       0 !
 H2/2.5/  H2O/12/ AR/0.75/ CO/1.9/  CO2/3.8/
! Tsang and Hampson, J. Phys. Chem. Ref. Data, 15:1087 (1986) 
!
O+O+M=O2+M                           1.9E13   0.000   -1788 ! 
 H2/2.5/ H2O/12/ AR/0.0/ CO/1.9/ CO2/3.8/
! Tsang W Hampson RF JPCRD 15:1087 1986
!
H2O+M = H+OH+M                       6.1E27  -3.322  120790 !
 H2/3.0/ H2O/0.0/ N2/2.0/ O2/1.5/ CO/1.9/ CO2/3.8/
! Srinivasan and Michael, Int. J. Chem. Kinetic. 38 (2006)
! Rate constant is for Ar with efficiencies from Michael et al., J. Phys. Chem. A, 106 (2002)
! Efficiencies for CO and CO2 taken from Li et al., Int. J. Chem. Kinet. 36:566-575 (2004)
H2O+H2O = H+OH+H2O                          	1.006E+26 -2.44  1.2018E+05
! Srinivasan and Michael, Int. J. Chem. Kinetic. 38 (2006)
!                        !   
!=================================================================================
! MAIN BATH GAS IS N2 (comment this reaction otherwise)
!
!H+O2(+M)=HO2(+M)                     4.7E12   0.440       0 !
! LOW/6.366E+20 -1.72  5.248E+02/
! TROE/0.5  1E-30  1E+30/
! H2/2.0/ H2O/14/ O2/0.78/ CO/1.9/ CO2/3.8/ AR/0.67/ 
!=================================================================================
! MAIN BATH GAS IS AR (comment this reaction otherwise)
!
H+O2(+M)=HO2(+M)                     4.7E12   0.440       0 !
 LOW/9.042E+19 -1.50  4.922E+02/
 TROE/0.5 1E-30  1E+30/
 H2/3.0/ H2O/21/ O2/1.1/ CO/2.7/ CO2/5.4/ N2/1.5/
!=================================================================================
! High-pressure limit from Troe, Proc. Comb. Inst. 28:1463-1469 (2000)
! Low-pressure  limit from Michael et al., J. Phys. Chem. A 106:5297-5313
! Centering factors from Fernandes et al., Phys. Chem. Chem. Phys. 10:4313-4321 (2008)
!
HO2+H=H2+O2                          2.8E06   2.090   -1451 !
! Michael et al., Proc. Comb. Inst. 28:1471 (2000)                   
! Scaled by 0.75 Burke et al. (2012)
! 
HO2+H=OH+OH                          7.1E13   0.000     295 !
! Mueller et al., Int. J. Chem. Kinetic. 31:113 (1999) 
!
HO2+H=H2O+O                          1.4E12   0.000       0 ! 
! Baulch DL Bowman CT Cobos CJ Cox RA Just Th Kerr JA Pilling MJ Stocker D Troe J Tsang W Walker RW Warnatz J JPCRD 34:757-1397 2005
!
HO2+O=O2+OH                          2.9E10   1.000    -724 !
! Fernandez-Ramos and Varandas, J. Phys. Chem. A 106:4077-4083 (2002)
! Scaled by 0.60 by Burke et al. 2012
!
HO2+OH = H2O+O2 				1.93E20    -2.49  5.84E+02
    DUPLICATE
HO2+OH = H2O+O2 			       1.21E+09   1.24   -1.31E+03
    DUPLICATE
! M. P. Burke, S. J. Klippenstein, L. B. Harding, Proc Combust Inst 34 (2013) 547?55.
!
HO2+HO2=H2O2+O2                      1.2E09   0.7712  -1825 !
 DUPLICATE
HO2+HO2=H2O2+O2                      1.3E12   0.295    7397 !                   	
   DUPLICATE
! D. D. Y. Zhou, K. Han, P. Zhang, L. B. Harding, M. J. Davis, R. T. Skodje, J Phys Chem A 116 (2012) 2089?100.
!
H2O2(+M) = OH+OH(+M)            			2.00E+12   0.90  4.8749E+04
 LOW/2.49E+24 -2.30 4.8749E+04/
 TROE/0.43 1E-30 1E+30/
 AR/1.0/ H2O/7.5/ CO2/1.6/ N2/1.5/ O2/1.2/ H2O2/7.7/ H2/3.7/ CO/2.8/
! Troe, Combust. Flame 158:594-601 (2011)
! Efficiencies for H2 and CO taken from Li et al., Int. J. Chem. Kinet. 36:566-575 (2004)
!
H2O2+H=H2O+OH                        2.4E13   0.000    3970 !
! Tsang and Hampson, J. Phys. Chem. Ref. Data, 15:1087 (1986)
!
H2O2+H=HO2+H2                        4.8E13   0.000    7950 !
! Tsang and Hampson, J. Phys. Chem. Ref. Data, 15:1087 (1986)
!
H2O2+O=HO2+OH                        9.6E06   2.000    3970 ! 
! Tsang W Hampson RF JPCRD 15:1087 1986
!
H2O2+OH=HO2+H2O                      1.7E12   0.000     318 !
   DUPLICATE
H2O2+OH=HO2+H2O                      7.6E13   0.000    7270 !
   DUPLICATE
! Hong et al., J. Phys. Chem. A  114 (2010) 5718?727
!
!
! *****************************************************************************
!    CO/CO2 subset                                                            *
! *****************************************************************************
CO+O(+M)=CO2(+M)                     2.830E+13   0.0   -4540.0 ! Dagaut 2002
 LOW  /1.35E24 -2.79 4191/                                  ! 
 TROE /1.0 1E-30 1E30 1E30/                                 ! 
 H2/2.5/ H2O/12/ CO/1.9/ CO2/3.8/                           !
!Mueller MA Yetter RA Dryer FL IJCK 31:705 1999
CO+OH=CO2+H                          4.400E+06   1.5    -740.0 !Dagaut 2002
 !#PLOG/  0.01315                      2.1E05   1.900   -1064/
 !#PLOG/  0.1315                       2.5E05   1.880   -1043/
 !#PLOG/  1.315                        8.7E05   1.730    -685/				
 !#PLOG/ 13.158                        6.8E06   1.480      48/
 !#PLOG/ 131.58                        2.3E07   1.350     974/
!J.P. Senosiain, S.J. Klippenstein, J.A. Miller, Proc. Combust. Inst. 30 (2005) 945-953.
!CO+OH=CO2+H                                     7.015E+004     2.053    -355.7
!DUP
!CO+OH=CO2+H                                     5.757E+012    -0.664     331.8
!DUP
CO+OH=HOCO                           2.0E20  -3.500    1309 !  1.0 atm interpolation - LPL (JPS,SJK,&JAM 30th Symp)
 !#PLOG/ 0.013158                      1.7E15  -2.680     859/						  
 !#PLOG/ 0.13158                       5.9E18  -3.350     887/					
 !#PLOG/ 1.3158	                     2.6E20  -3.500    1309/						      
 !#PLOG/ 13.158	                     7.1E20  -3.320    1763/					
 !#PLOG/ 131.58                        1.1E20  -2.780    2056/	
! J.P. Senosiain, S.J. Klippenstein, J.A. Miller, Proc. Combust. Inst. 30 (2005) 945-953.
!
CO+HO2=CO2+OH                        1.6E05   2.180   17943 !
! You X Wang H Goos E Sung C-J Klippenstein SJ JCPA 111:4031-4042 2007
! 
CO+O2=CO2+O                          4.7E12   0.000   60500 ! 
! Bacskay GB Mackie JC JPCA 109:2019-2025 2005
! 
CO+H2O2=HOCO+OH                      3.6E04   2.500   28660 ! 
! P Glarborg P Marshall CPL 475 (2009) 40-43
!
HOCO(+M)=CO2+H(+M)                   8.2E11   0.413   35335 !
 LOW  / 6.0E26 -3.148 37116 /                               !            
 TROE / 0.39 1.0E-30 1.0E30 /                               ! Fc = 0.39
! DM Golden GP Smith AB McEwen C-L Yu B Eiteneer M Frenklach GL Vaghjiani AR Ravishankara FP Tully J Phys Chem. A 102 (1998) 8598-8606.
!
HOCO+H=CO2+H2                        3.1E17  -1.3475    555 !            
! H.G. Yu, J.S. Francisco, J. Chem. Phys. 128 (2008) 244315.
! P. Marshall, P. Glarborg, Proc Combust Inst, submitted (300-1000 K, fit).
!
HOCO+H=CO+H2O                        6.0E15  -0.525    2125 !            
! H.G. Yu, J.S. Francisco, J. Chem. Phys. 128 (2008) 244315.
! P. Marshall, P. Glarborg, Proc Combust Inst, submitted (300-1000 K, fit).
!
HOCO+O=CO2+OH                        9.0E12   0.000       0 !            
! H.G. Yu, J.T. Muckerman, J.S. Francisco, J. Chem. Phys. 127 (2007) 094302.
!
HOCO+OH=CO2+H2O                      4.6E12   0.000     -89 ! 
 DUPLICATE                                                  !
HOCO+OH=CO2+H2O                      9.5E06   2.000     -89 ! 
 DUPLICATE                                                  !
! Yu H-G Muckerman JT Francisco JS JPCA 109:5230-5236 2005
!
HOCO+HO2=CO2+H2O2                    4.0E13   0.000       0 ! 
! H.G. Yu, G. Poggi, J.S. Francisco, J.T. Muckerman, J. Chem. Phys. 129 (2008) 214307.
!
HOCO+O2=CO2+HO2                      4.0E09   1.000       0 !         
! H.G. Yu, J.T. Muckerman, J. Phys. Chem. A 110 (2006) 5312-5316.
! P. Marshall, P. Glarborg, Proc Combust Inst 35 (2015).
!
!
! *****************************************************************************
!    CH2O subset                                                              *
! *****************************************************************************
! 
CH2O(+M)=HCO+H(+M)                   8.0E15   0.000   87726 ! 
 LOW  /3.734E15 0.0 73479/                                  !
! Troe J JPCA 109:8320-8328 2005
!
CH2O(+M)=CO+H2(+M)                   3.7E13   0.000   71969 ! 
 LOW  /5.661E15 0.0 65849/                                  !
! Troe J JPCA 109:8320-8328 2005
!
CH2O+H=HCO+H2                        4.1E08   1.470    2444 ! 
! Baulch DL Bowman CT Cobos CJ Cox RA Just Th Kerr JA Pilling MJ Stocker D Troe J Tsang W Walker RW Warnatz J JPCRD 34:757-1397 2005
!
CH2O+O=HCO+OH                        4.2E11   0.570    2760 ! 
! Baulch DL Bowman CT Cobos CJ Cox RA Just Th Kerr JA Pilling MJ Stocker D Troe J Tsang W Walker RW Warnatz J JPCRD 34:757-1397 2005
!
CH2O+O2=HCO+HO2                      2.4E05   2.500   36461 ! 
! Baulch DL Bowman CT Cobos CJ Cox RA Just Th Kerr JA Pilling MJ Stocker D Troe J Tsang W Walker RW Warnatz J JPCRD 34:757-1397 2005
!
CH2O+OH=HCO+H2O                      7.8E07   1.630   -1055 ! 
! Vasudevan V Davidson DF Hanson RK IJCK 37:98-109 2005 
!
CH2O+HO2=HCO+H2O2                    4.1E04   2.500   10206 ! 
! Eiteneer B Yu CL Goldenberg M Frenklach M JPCA 102:5196 1998
!
CH2O+CH3=HCO+CH4                     3.2E01   3.360    4310 ! 
! Baulch DL Bowman CT Cobos CJ Cox RA Just Th Kerr JA Pilling MJ Stocker D Troe J Tsang W Walker RW Warnatz J JPCRD 34:757-1397 2005
!
HCO=H+CO                             9.9E11  -0.865   16755 ! 
 !#PLOG/0.04                           6.1E10  -0.865   16755/  
 !#PLOG/1.0                            9.9E11  -0.865   16755/  
 !#PLOG/10.0			     1.3E13  -0.865   16755/  
 !#PLOG/50.0			     2.9E13  -0.865   16755/  
 !#PLOG/100.0			     5.3E13  -0.865   16755/  
! HCO=H+CO               9.83E11*P[bar]^0.865  -0.865   16755 ! general pressure dependency
! Hippler H Krasteva N Striebel F PCCP 6:3383-3388 2004
!
HCO+H=CO+H2                          1.1E14   0.000       0 ! 
! Friedrichs G Herbon JT Davidson DF Hanson RK CPPC 4:5778-5788 2002
!
HCO+O=CO+OH                          3.0E13   0.000       0 ! 
! Baulch DL Cobos CJ Cox RA Esser C Frank P Just Th Kerr JA Pilling MJ Troe J Walker RW Warnatz J JPCRD 21:403 1992
!
HCO+O=CO2+H                          3.0E13   0.000       0 ! 
! Baulch DL Cobos CJ Cox RA Esser C Frank P Just Th Kerr JA Pilling MJ Troe J Walker RW Warnatz J JPCRD 21:403 1992
!
HCO+OH=CO+H2O                        1.1E14   0.000       0 ! 
! Baulch DL Bowman CT Cobos CJ Cox RA Just Th Kerr JA Pilling MJ Stocker D Troe J Tsang W Walker RW Warnatz J JPCRD 34:757-1397 2005
!
HCO+O2=CO+HO2                        6.9E06   1.900   -1369 ! ##
! FassheberN Friedrichs G Marshall P Glarborg P JPCA 2015
!
HCO+HO2=CO2+OH+H                     3.0E13   0.000       0 !
! Tsang W Hampson RF JPCRD 15:1087 1986  
!
HCO+HCO=CO+CH2O                      2.7E13   0.000       0 ! 
! Friedrichs G Herbon JT Davidson DF Hanson RK CPPC 4:5778-5788 2002
!
!
! *****************************************************************************
!    CH4 subset                                                               *
! *****************************************************************************
!  
CH3+H(+M)=CH4(+M)                    6.9E13   0.18        0 ! #
 LOW /   3.8E39 -6.564 6744/     
 TROE /  0.7 10063 456.1/       
 H2/2.86/ H2O/8.57/ CH4/2.86/  CO/2.14/ CO2/2.86/ C2H6/4.29/ N2/1.43/
! LB Harding Y (Georgievskii SJ Klippenstein JPCA 109 (2005) 4646-4656
! SJK, unpublished (2010)
!
CH4+H=CH3+H2                         4.1E03   3.156    8755 ! 
! Sutherland JW Su M-C Michael JV IJCK 33:669-684 2001
!
CH4+O=CH3+OH                         4.4E05   2.500    6577 ! 
! Baulch DL Bowman CT Cobos CJ Cox RA Just Th Kerr JA Pilling MJ Stocker D Troe J Tsang W Walker RW Warnatz J JPCRD 34:757-1397 2005
!
CH4+OH=CH3+H2O                       1.0E06   2.182    2506 ! 
! Srinivasan NK Su M-C Sutherland JW Michael JV JPCA 109:7902-7914 2005
!
CH4+HO2=CH3+H2O2                     4.7E04   2.500   21000 ! 
! Baulch DL Bowman CT Cobos CJ Cox RA Just Th Kerr JA Pilling MJ Stocker D Troe J Tsang W Walker RW Warnatz J JPCRD 34:757-1397 2005
!
CH3+HO2=CH4+O2                       1.2E05   2.228    3022 ! #
! Srinivasan, Michael, Harding, Klippenstein, Combust Flame 149, 104 (2007)
!
CH4+CH2=CH3+CH3                      4.3E12   0.000   10030 ! 
! Bohland T Dobe S Wagner HGg BBPC 89:1110 (1985)
!
CH4+CH2*=CH3+CH3                   4.3E13   0.000       0 ! 
! Tsang W Hampson RF JPCRD 15:1087 1986  
!
CH4+CH=C2H4+H                        3.0E13   0.000    -400 !           
! Baulch DL Cobos CJ Cox RA Esser C Frank P Just Th Kerr JA Pilling MJ Troe J Walker RW Warnatz J JPCRD 21:403 1992
!
CH3+M=CH+H2+M                        3.1E15   0.00    80871 ! #
! V Vasudevan, RK Hanson, DM Golden, CT Bowman, DF Davidson, J. Phys. Chem. A 2007, 111, 4062-4072
!
CH3+M=CH2+H+M                        2.2E15   0.00    82659 ! #
! V Vasudevan, RK Hanson, DM Golden, CT Bowman, DF Davidson, J. Phys. Chem. A 2007, 111, 4062-4072
!
CH2+H2=CH3+H                         4.4E05   2.39     3699 ! #fejl!!! E/1.987
! K-W Lu, H Matsui, C-L Huang, P Raghunath, N-S Wang, MC Lin, J. Phys. Chem. A 2010, 114, 5493?502
!
CH2*+H2=CH3+H                      7.2E13   0.000       0 ! 
! Baulch DL Cobos CJ Cox RA Esser C Frank P Just Th Kerr JA Pilling MJ Troe J Walker RW Warnatz J JPCRD 21:403 1992
!
CH3+O=CH2O+H                         6.9E13   0.000       0 ! 
! Baulch DL Bowman CT Cobos CJ Cox RA Just Th Kerr JA Pilling MJ Stocker D Troe J Tsang W Walker RW Warnatz J JPCRD 34:757-1397 2005
! Press JM Fockenberg C Flynn GW JPCA 104:6755-6763 2000 (82%)
!
CH3+O=H2+CO+H                        1.5E13   0.000       0 ! 
! Baulch DL Bowman CT Cobos CJ Cox RA Just Th Kerr JA Pilling MJ Stocker D Troe J Tsang W Walker RW Warnatz J JPCRD 34:757-1397 2005
! Press JM Fockenberg C Flynn GW JPCA 104:6755-6763 2000 (82%)
!
!CH3+OH=CH2+H2O                       1.1E03   3.000    2780 ! 
! Wilson C Balint-Kurti GG JPCA 102:1625-1631 1998 (atm pres)
CH3+OH=CH2+H2O                       4.3E04   2.568    3997 ! #
! Jasper AW Klippenstein SJ Harding LB Ruscic B JPCA 111:3932-3950 2007
! 300-3000 K abstraction on the triplet surface (not in paper)
!
CH3+OH=CH2*+H2O                    4.3E15  -0.85972  1888 !  #
!#PLOG /    0.001316                   1.1E14  -0.45845  -496 /
!#PLOG /    0.013158                   2.2E14  -0.53832  -220 /
!#PLOG /    0.131579                   1.2E15  -0.72747   600 /
!#PLOG /    1.315789                   4.3E15  -0.85972  1888 /
!#PLOG /   13.157895                   4.4E14  -0.53864  2932 /
!#PLOG /  131.578947                   6.1E10   0.59560  2923 /
! Jasper AW Klippenstein SJ Harding LB Ruscic B JPCA 111:3932-3950 2007
!
CH3+OH=H2+CH2O                       3.6E12  -0.53245  2042 ! #
!#PLOG /    0.001316                   3.9E09   0.25392 -1221 /
!#PLOG /    0.013158                   2.0E10   0.06025  -624 /
!#PLOG /    0.131579                   2.8E11  -0.24957   498 /
!#PLOG /    1.315789                   3.6E12  -0.53245  2042 /
!#PLOG /   13.157895                   2.2E12  -0.43166  3415 /
!#PLOG /  131.578947                   2.4E09   0.45344  3791 /
! Jasper AW Klippenstein SJ Harding LB Ruscic B JPCA 111:3932-3950 2007
!
CH3+OH=H+CH2OH                       5.6E10   0.73966  3971 ! #
!#PLOG /    0.001316                   8.4E09   0.96279  3230 /
!#PLOG /    0.013158                   8.4E09   0.96279  3230 /
!#PLOG /    0.131579                   1.0E10   0.94201  3295 /
!#PLOG /    1.315789                   5.6E10   0.73966  3971 /
!#PLOG /   13.157895                   5.5E11   0.48620  5443 /
!#PLOG /  131.578947                   2.5E10   0.90920  6402 /
! Jasper AW Klippenstein SJ Harding LB Ruscic B JPCA 111:3932-3950 2007
!
CH3+OH=H+CH3O                        7.9E08   1.06457 11859 ! #
!#PLOG /    0.001316                   7.9E08   1.06509 11859 /
!#PLOG /    0.013158                   7.9E08   1.06509 11859 /
!#PLOG /    0.131579                   7.9E08   1.06509 11859 /
!#PLOG /    1.315789                   7.9E08   1.06457 11859 /
!#PLOG /   13.157895                   1.0E09   1.03413 11970 /
!#PLOG /  131.578947                   3.1E09   0.92189 12981 /
! Jasper AW Klippenstein SJ Harding LB Ruscic B JPCA 111:3932-3950 2007
!
CH3+OH=H2+HCOH                       6.5E11   0.11155   932 ! #
!#PLOG /    0.001316                   1.2E09   0.83024 -2323 /
!#PLOG /    0.013158                   6.4E09   0.63305 -1701 /
!#PLOG /    0.131579                   8.0E10   0.33964  -565 /
!#PLOG /    1.315789                   6.5E11   0.11155   932 /
!#PLOG /   13.157895                   2.1E11   0.29509  2200 /
!#PLOG /  131.578947                   9.4E07   1.28631  2424 /
! Jasper AW Klippenstein SJ Harding LB Ruscic B JPCA 111:3932-3950 2007
! cis and trans products are combined as HCOH
!
CH3+HO2=CH3O+OH                      1.0E12   0.2688    688 ! #
! Jasper, Klippenstein, Harding, Proc. Combust. Inst. 32, 279 (2009)
!
CH3+O2=CH3O+O                        7.5E12   0.000   28297 ! 
! Srinivasan NK Su M-C Sutherland JW Michael JV JPCA 109:7902-7914 2005
!
CH3+O2=CH2O+OH                       1.9E11   0.000    9842 ! 
! Srinivasan NK Su M-C Sutherland JW Michael JV JPCA 109:7902-7914 2005
!
CH3+O2=CH3O2                         5.0E22  -3.85     2000 ! 
 !#PLOG/ 0.01		             6.8E24  -3.000       0/!k0 
 !#PLOG/ 1.0		             5.0E22  -3.85     2000/  
 !#PLOG/10.0			     3.4E21  -3.20     2300/  
 !#PLOG/20.0                           4.1E20  -2.94     1900/  
 !#PLOG/20.0                           3.3E29  -5.6      6850/ 
 !#PLOG/50.0                           2.8E18  -2.20     1400/ 
 !#PLOG/50.0                           5.6E28  -5.25     6850/
 !#PLOG/100.0                          1.1E19  -2.30     1800/
 !#PLOG/100.0                          4.1E30  -5.7      8750/ 
! Fernandes RX Luther K Troe J JPCA 110:4442-4449 2006 (fit to data)
!
CH3+HCO=CH4+CO                       4.3E19  -2.1429    989 ! #
! LBH, SJK, AWJ PCCP 9, 4055-4070 (2007) (JAM)
!
CH3+CH3=C2H5+H                       5.4E13   0.000   16055 !
! Baulch DL Bowman CT Cobos CJ Cox RA Just Th Kerr JA Pilling MJ Stocker D Troe J Tsang W Walker RW Warnatz J JPCRD 34:757-1397 2005
!
CH3+CH2=C2H4+H                       1.2E15  -0.3432    153 !      
! Jasper AW Klippenstein SJ Harding LB JPCA 111:8689-8707 2007
!
CH3+CH2*=C2H4+H                    2.0E13   0.000       0 ! 
! Tsang W Hampson RF JPCRD 15:1087 1986  
!
CH3+CH=C2H3+H                        3.0E13   0.000       0 ! 
! Glarborg P Alzueta MU Dam-Johansen K Miller JA CF 115:1 1998
! JAM est
!
CH3+C=C2H2+H                         5.0E13   0.000       0 ! 
! Glarborg P Alzueta MU Dam-Johansen K Miller JA CF 115:1 1998
! JAM est
!
CH2+M=CH+H+M                         5.6E15  0.000    89000 !           
! Bauerle S Klatt M Wagner HGg BBPC 99:870 1995
!
CH2+M=C+H2+M                         5.8E12  0.500    68500 !          
! Bauerle S Klatt M Wagner HGg BBPC 99:870 1995
!
CH2+H=CH+H2                          1.2E14  0.000        0 !          
! Baulch DL Bowman CT Cobos CJ Cox RA Just Th Kerr JA Pilling MJ Stocker D Troe J Tsang W Walker RW Warnatz J JPCRD 34:757-1397 2005
!
CH2+O=CO+H+H                         1.2E14  0.000      536 !           
! Baulch DL Bowman CT Cobos CJ Cox RA Just Th Kerr JA Pilling MJ Stocker D Troe J Tsang W Walker RW Warnatz J JPCRD 34:757-1397 2005
!
CH2+O=CO+H2                          8.0E13  0.000      536 !            
! Baulch DL Bowman CT Cobos CJ Cox RA Just Th Kerr JA Pilling MJ Stocker D Troe J Tsang W Walker RW Warnatz J JPCRD 34:757-1397 2005
!
CH2+OH=CH2O+H                        2.8E13  0.1228    -161 !            
! A.W. Jasper, S.J. Klippenstein, L.B. Harding, J. Phys. Chem. A 111 (2007) 8699-8707.
!
CH2+OH=CH+H2O                        8.6E05  2.019     6776 !           
! A.W. Jasper, S.J. Klippenstein, L.B. Harding, J. Phys. Chem. A 111 (2007) 8699-8707.
!
CH2+O2=CO2+H+H                       2.05E09  0.9929   -269 ! #           
! SJK unpublished (2013)
!
CH2+O2=CH2O+O                        1.26E06  2.4202   1604 ! #            
! SJK unpublished (2013)
!
CH2+CO2=CO+CH2O                      1.0E11  0.000     1000 ! 
! Glarborg P Miller JA Kee RJ CF 65:177 1986 est
!
CH2+CH2=C2H2+H+H                     7.0E13   0.0022      8 !           
! Jasper AW Klippenstein SJ Harding LB JPCA 111:8689-8707 2007
!
CH2+CH2=C2H2+H2                      1.8E13   0.0022      8 !           
! Jasper AW Klippenstein SJ Harding LB JPCA 111:8689-8707 2007
!
CH2+CH=C2H2+H                        4.0E13   0.000       0 ! 
! Glarborg P Alzueta MU Dam-Johansen K Miller JA CF 115:1 1998
! JAM est
!
CH2+C=C2H+H                          5.0E13   0.000       0 ! 
! Glarborg P Alzueta MU Dam-Johansen K Miller JA CF 115:1 1998
! JAM est
!
CH2*+N2=CH2+N2                     1.3E13  0.000      430 !  
! Hayes F Lawrance WD Staker WS King KD JPC 100:11314 1996 (N2)
!
CH2*+AR=CH2+AR                     1.5E13  0.000      884 ! 
! Hayes F Lawrance WD Staker WS King KD JPC 100:11314 1996
!
CH2*+H=CH2+H                       2.0E14  0.000        0 !  
! JAM est
!
CH2*+H=CH+H2                       3.0E13  0.000        0 !  
! Tsang W Hampson RF JPCRD 15:1087 1986  
!
CH2*+O=CO+2H                       3.0E13  0.000        0 !  
! Tsang W Hampson RF JPCRD 15:1087 1986  
!
CH2*+OH=CH2O+H                     3.0E13  0.000        0 !  
! Tsang W Hampson RF JPCRD 15:1087 1986  
!
CH2*+O2=CH2+O2                     3.1E13  0.000        0 ! ISC=100%
! Baulch DL Bowman CT Cobos CJ Cox RA Just Th Kerr JA Pilling MJ Stocker D Troe J Tsang W Walker RW Warnatz J JPCRD 34:757-1397 2005
!
CH2*+H2O=CH2+H2O                   3.0E13  0.000        0 !
! Hack W Wagner HGg Wilms A BBPC 92:620-627 1988
! Carstensen HH Wagner HGg BBPC 99:1539 1995
!
CH2*+CO2=CH2O+CO                   1.1E13  0.000        0 !  
! Koch M Temps FWagener R Wagner HGg BBPC 94:645-650 
!
CH+H=C+H2                            1.2E14  0.000        0 !  
! Baulch DL Bowman CT Cobos CJ Cox RA Just Th Kerr JA Pilling MJ Stocker D Troe J Tsang W Walker RW Warnatz J JPCRD 34:757-1397 2005
!
CH+O=CO+H                            5.7E13  0.000        0 ! 
! Messing I Filseth SV Sadowski CM Carrington T JCP 74:3874 1981
!
CH+OH=HCO+H                          3.0E13  0.000        0 !  
! JAM est
!
CH+OH=C+H2O                          4.0E07  2.000     3000 !  
! JAM est
!
CH+O2=HCO+O                          3.3E13  0.000        0 ! 
! Baulch DL Cobos CJ Cox RA Esser C Frank P Just Th Kerr JA Pilling MJ Troe J Walker RW Warnatz J JPCRD 21:403 1992
!
CH+H2O=CH2O+H                        8.5E08  1.144    -2051 ! # 
! SJK unpublished (2012)
!
CH+CO2=HCO+CO                        8.8E06  1.750    -1040 ! 
! P Glarborg, LLB Bentzen, EF 22, 291-296 (2008) 
! Butler, J. E.; Fleming, J. W.; Goss, L. P.; Lin, M. C. ACS Symp. Ser. 1980, 134, 397.
! Berman, M. R.; Fleming, J. W.; Harvey, A. B.; Lin, M. C. Proc. Combust. Inst. 1982, 19, 73.
! Mehlmann, C.; Frost, M. J.; Heard, D. E.; Orr, B. J.; Nelson, P. F. J. Chem. Soc., Faraday Trans. 1996, 92, 2335?341.
! Markus, M. W.; Roth, P.; Just, T. Int. J. Chem. Kinet. 1996, 28, 171?79.
!
CH+CH2O=CH2CO+H                      9.5E13   0.000    -517 !  
! Baulch DL Cobos CJ Cox RA Esser C Frank P Just Th Kerr JA Pilling MJ Troe J Walker RW Warnatz J JPCRD 21:403 1992
!
C+OH=CO+H                            5.0E13  0.000        0 ! 
! JAM est
!
C+O2=CO+O                            2.0E13  0.000        0 !  
! Husain D Kirsch LJ Trans Faraday Soc 67:2025 1971
!
!
CH3OH(+M)=CH3+OH(+M)                 2.1E18  -0.6148  92540 ! 
 LOW  /2.60E49 -8.80 101500/                                ! 
 TROE /0.7656 1910 59.51 9374/                              !
! Jasper AW Klippenstein SJ Harding LB Ruscic B JPCA 111:3932-3950 2007
!
CH3OH(+M)=CH2*+H2O(+M)             3.1E18  -1.017   91712 ! 
 LOW  /5.4E23 -8.3446 99596/                                ! 
 TROE /0.9922 943 47310 47110/                              !
! Jasper AW Klippenstein SJ Harding LB Ruscic B JPCA 111:3932-3950 2007
!
CH2OH+H(+M)=CH3OH(+M)                4.3E15  -0.790       0 ! 
 LOW  /3.844E37 -6.21 1333/                                 !
 TROE /0.25 210 1434 1E30/                                  !
!
CH3O+H(+M)=CH3OH(+M)                 2.4E12   0.515      50 ! 
 LOW  /4.66E41 -7.44 14080/                                 !
 TROE /0.7 100 90000 10000/                                 !
 N2/1/ H2/2/ H2O/6/ CH4/2/ CO/1.5/ CO2/2/ C2H6/3/           !
! GRI3.0
!
CH3OH+H=CH2OH+H2                     6.6E04   2.728    4449 ! 
! Moses JI Visscher C Fortney JJ Showman AP Lewis NK Griffith CA Klippenstein SJ Shabram M Friedson AJ Marley MS Freedman RS Astrophys J 2011, 737, 15.
!
CH3OH+H=CH3O+H2                      4.1E04   2.658    9221 ! 
! Moses JI Visscher C Fortney JJ Showman AP Lewis NK Griffith CA Klippenstein SJ Shabram M Friedson AJ Marley MS Freedman RS Astrophys J 2011, 737, 15.
!
CH3OH+O=CH2OH+OH                     2.1E13   0.000    5305 !  
! Baulch DL Bowman CT Cobos CJ Cox RA Just Th Kerr JA Pilling MJ Stocker D Troe J Tsang W Walker RW Warnatz J JPCRD 34:757-1397 2005
! CL Rasmussen, KH Andersen, K Dam-Johansen, P Glarborg, IJCK 40, 423-441 (2008)
!
CH3OH+O=CH3O+OH                      3.7E12   0.000    5305 ! (~15% est)
! Baulch DL Bowman CT Cobos CJ Cox RA Just Th Kerr JA Pilling MJ Stocker D Troe J Tsang W Walker RW Warnatz J JPCRD 34:757-1397 2005
! CL Rasmussen, KH Andersen, K Dam-Johansen, P Glarborg, IJCK 40, 423-441 (2008)
!
CH3OH+OH=CH2OH+H2O                   1.5E08   1.4434    113 ! 
! Srinivasan NK Su M-C Michael JV JPCA 111:3951-3958 2007
! CL Rasmussen, KH Andersen, K Dam-Johansen, P Glarborg, IJCK 40, 423-441 (2008)
!
CH3OH+OH=CH3O+H2O                    2.7E07   1.4434    113 ! RAS/GLA08c SRI/MIC07 
! Srinivasan NK Su M-C Michael JV JPCA 111:3951-3958 2007
! CL Rasmussen, KH Andersen, K Dam-Johansen, P Glarborg, IJCK 40, 423-441 (2008)
!
CH3OH+HO2=CH2OH+H2O2                 3.5E-4   4.850   10346 ! 
! Alecu, I.M.; Truhlar, D.G. J Phys Chem A 2011, 115, 14599-14611.
!
CH3OH+HO2=CH3O+H2O2                  1.5E-3   4.610   15928 ! 
! Alecu, I.M.; Truhlar, D.G. J Phys Chem A 2011, 115, 14599-14611.
!
CH3OH+O2=CH2OH+HO2                   3.6E05   2.270   42760 ! 
! Klippenstein SJ Harding LB Davis MJ Tomlin AS Skodje RT PCI 2011, 33, 351-357.
!
CH2OH=CH2O+H                         2.3E36  -7.53    44880 ! 
 !#PLOG/ 0.01                          3.3E32  -7.18    39740/ 
 !#PLOG/ 0.1                           8.3E41  -9.58    45730/ 
 !#PLOG/ 1.0                           2.3E36  -7.53    44880/ 
 !#PLOG/ 20.                           5.7E34  -6.64    46430/ 
 !#PLOG/ 50.                           3.4E31  -5.57    45610/ 
 !#PLOG/ 100.                          1.7E27  -4.21    44130/ 
! V Aranda JM Christensen MU Alzueta AD Jensen P Glarborg S Gersen Y Gao P Marshall, IJCK 45 (2013) 283-294.
!
CH2OH+H=CH2O+H2                      4.0E06   1.860     147 !            
! XU K Xu ZF Lin MC Mol Phys 105:2763-2776 2007
!
!CH2OH+H=CH3+OH                       1.8E14   0.160     111 !       
! XU K Xu ZF Lin MC Mol Phys 105:2763-2776 2007
!
CH2OH+O=CH2O+OH                      6.6E13   0.000    -693 ! 
! Seetula JA Kalinovski IJ Slagle IR Gutman D Chem. Phys. Lett. 224:533 1994
!
CH2OH+OH=CH2O+H2O                    2.4E13   0.000       0 ! 
! Tsang W JPCRD 16:471 1987
!
CH2OH+HO2=CH2O+H2O2                  1.2E13   0.000       0 ! 
! Tsang W JPCRD 16:471 1987
!
CH2OH+O2=CH2O+HO2                    7.2E13   0.000    3736 ! 
     DUPLICATE                                              !
CH2OH+O2=CH2O+HO2                    2.9E16  -1.500       0 ! 
     DUPLICATE                                               
! Baulch DL Bowman CT Cobos CJ Cox RA Just Th Kerr JA Pilling MJ Stocker D Troe J Tsang W Walker RW Warnatz J JPCRD 34:757-1397 2005
!
CH2OH+HCO=CH3OH+CO                   1.0E13   0.000       0 ! 
! Tsang W JPCRD 16:471 1987
! Friedrichs G Herbon JT Davidson DF Hanson RK IJCK 36:157-169 2004
!
CH2OH+HCO=CH2O+CH2O                  1.5E13   0.000       0 ! 
! Tsang W JPCRD 16:471 1987
! Friedrichs G Herbon JT Davidson DF Hanson RK IJCK 36:157-169 2004

CH2OH+CH2O=CH3OH+HCO                 5.5E03   2.810    5862 ! 
! Tsang W JPCRD 16:471 1987
!
CH2OH+CH2OH=CH3OH+CH2O               4.8E12   0.000       0 ! 
! Tsang W JPCRD 16:471 1987
!
CH2OH+CH3O=CH3OH+CH2O                2.4E12   0.000       0 ! 
! Tsang W JPCRD 16:471 1987
!
CH2OH+CH4=CH3OH+CH3                  2.2E01   3.100   16227 !
! Tsang W JPCRD 16:471 1987
! 
CH3O=CH2O+H                         6.0E111 -31.12    64130 ! 
 !#PLOG/ 0.01                          1.4E27  -5.99    27390/ 
 !#PLOG/ 0.1                           2.3E16  -2.66    20860/ 
 !#PLOG/ 1.0                          6.0E111 -31.12    64130/ 
 !#PLOG/ 20.                          4.2E107 -29.49    63410/ 
 !#PLOG/ 50.                           4.4E83 -22.09    53620/ 
 !#PLOG/ 100.                          3.6E89 -23.64    57920/ 
! V Aranda JM Christensen MU Alzueta AD Jensen P Glarborg S Gersen Y Gao P Marshall, IJCK 45 (2013) 283-294.
!
!CH3O+H=CH2O+H2                       7.6E08   1.500    -519 ! 
! XU K Xu ZF Lin MC Mol Phys 105:2763-2776 2007 (1 atm)
!
CH3O+O=CH2O+OH                       3.8E12   0.000       0 ! 
! Ewig F Rhäsa D Zellner R Ber. Bunsenges. Phys. Chem. 91:708-717 1987
! Baulch DL Bowman CT Cobos CJ Cox RA Just Th Kerr JA Pilling MJ Stocker D Troe J Tsang W Walker RW Warnatz J JPCRD 34:757-1397 2005
! (k/ktot=0.25[CEC05])
!
CH3O+OH=CH2O+H2O                     1.8E13   0.000       0 ! 
! Tsang W Hampson RF JPCRD 15:1087 1986
!
CH3O+HO2=CH2O+H2O2                   3.0E11   0.000       0 ! 
! Tsang W Hampson RF JPCRD 15:1087 1986
!
CH3O+O2=CH2O+HO2                     4.8E-1   3.567   -1055 ! 
! V Aranda JM Christensen MU Alzueta AD Jensen P Glarborg S Gersen Y Gao P Marshall, IJCK 45 (2013) 283-294.
!
CH3O+CO=CH3+CO2                      9.5E25  -4.930    9080 ! 
! Wang B Hou H Gu Y JPCA 103:8021-8029 1999 (1 bar,200-1000 K)
!
CH3O+CH3=CH2O+CH4                    2.4E13   0.000       0 ! 
! Tsang W Hampson RF JPCRD 15:1087 1986
!
CH3O+CH4=CH3OH+CH3                   1.3E14   0.000   15073 ! 
! Wantuck PJ Oldenborg RC Baughcum SL Winn KR PCI 22:973-981 1988
!
CH3O+CH2O=CH3OH+HCO                  1.0E11   0.000    2981 ! 
! Tsang W Hampson RF JPCRD 15:1087 1986
!
CH3O+CH3O=CH3OH+CH2O                 6.0E13   0.000       0 ! 
! Tsang W Hampson RF JPCRD 15:1087 1986
!
!
CH3O2H=CH3O+OH                       2.0E35  -6.700   47450 ! 
 !#PLOG/ 0.03                          1.3E46 -10.500   50540/ 
 !#PLOG/ 1.0                           2.0E35  -6.700   47450/ 
 !#PLOG/ 10.                           1.1E28  -4.150   46190/ 
 !#PLOG/ 50.                           2.8E26  -3.500   46340/ 
 !#PLOG/ 1000.                         2.2E17  -0.420   44622/ ! kinf 
! Zhu RS Lin MC JCPA 2001, 105, 6243-6248
!
CH3O2H+H=CH2OOH+H2                   5.4E10   0.000    1860 ! 
! Slemr F Warneck P IJCK 9:267 1977
!
CH3O2H+H=CH3O2+H2                    5.4E10   0.000    1860 ! 
! Slemr F Warneck P IJCK 9:267 1977
!
CH3O2H+H=CH3O+H2O                    1.2E10   0.000    1860 ! 
! Slemr F Warneck P IJCK 9:267 1977
!
CH3O2H+O=CH2OOH+OH                   1.6E13   0.000    4750 ! 
! Baulch DL Bowman CT Cobos CJ Cox RA Just Th Kerr JA Pilling MJ Stocker D Troe J Tsang W Walker RW Warnatz J JPCRD 34:757-1397 2005
!
CH3O2H+O=CH3O2+OH                    8.7E12   0.000    4750 ! 
! Baulch DL Bowman CT Cobos CJ Cox RA Just Th Kerr JA Pilling MJ Stocker D Troe J Tsang W Walker RW Warnatz J JPCRD 34:757-1397 2005
!
CH3O2H+OH=CH3O2+H2O                  1.1E12   0.000    -437 !  
! Baulch DL Bowman CT Cobos CJ Cox RA Just Th Kerr JA Pilling MJ Stocker D Troe J Tsang W Walker RW Warnatz J JPCRD 34:757-1397 2005
!
CH3O2H+OH=CH2OOH+H2O                 7.2E11   0.000    -258 !  
! Baulch DL Bowman CT Cobos CJ Cox RA Just Th Kerr JA Pilling MJ Stocker D Troe J Tsang W Walker RW Warnatz J JPCRD 34:757-1397 2005
!
CH3O2H+HO2=CH3O2+H2O2                4.1E04   2.500   10206 ! 
! CL Rasmussen JG Jacobsen P Glarborg IJCK 40 (2008) 778-807
! est CH2O+HO2=HCO+H2O2
!
CH3O2+H=CH3O+OH                      1.0E14   0.000       0 ! 
! Tsang W Hampson RF JPCRD 15:1087 1986
!
CH3O2+O=CH3O+O2                      1.6E13   0.000    -445 ! 
! CL Rasmussen JG Jacobsen P Glarborg IJCK 40 (2008) 778-807
! est HO2+O
!
CH3O2+OH=CH3OH+O2                    2.0E15  -0.600       0 ! 
! CL Rasmussen JG Jacobsen P Glarborg IJCK 40 (2008) 778-807
!
CH3O2+OH=CH3O+HO2                    4.0E11   0.600       0 !
! CL Rasmussen JG Jacobsen P Glarborg IJCK 40 (2008) 778-807
!
CH3O2+HO2=CH3O2H+O2                  2.5E11   0.000   -1490 ! 
! Tyndall GS Cox RA Granier C Lesclaux R Moortgat GK Pilling MJ Ravishankara AR Wallington TJ J Geophys Res 106:12157-12182 2001
!
CH3O2+CH3=CH3O+CH3O                  5.1E12   0.000   -1411 ! 
! Keiffer M Miscampbell AJ Pilling MJ JCSFT2 84:505 1988 
!
CH3O2+CH4=CH3O2H+CH3                 4.7E04   2.500   21000 ! 
! CL Rasmussen JG Jacobsen P Glarborg IJCK 40 (2008) 778-807
! est CH4+HO2=CH3+H2O2
!
CH3O2+HCO=CH3O+H+CO2                 3.0E13   0.000       0 ! 
! CL Rasmussen JG Jacobsen P Glarborg IJCK 40 (2008) 778-807
! est HCO+HO2=CO2+OH+H
!
CH3O2+CO=CH3O+CO2                    1.6E05   2.180   17940 ! 
! CL Rasmussen JG Jacobsen P Glarborg IJCK 40 (2008) 778-807
! est CO+HO2=CO2+OH
!
CH3O2+CH2O=CH3O2H+HCO                4.1E04   2.500   10206 ! 
! CL Rasmussen JG Jacobsen P Glarborg IJCK 40 (2008) 778-807
! est CH2O+HO2=HCO+H2O2
!
CH3O2+CH3O=CH2O+CH3O2H               3.0E11   0.000       0 ! 
! Tsang W Hampson RF JPCRD 15:1087 1986
!
CH3O2+CH3OH=CH3O2H+CH2OH             4.0E13   0.000   19400 ! 
! CL Rasmussen JG Jacobsen P Glarborg IJCK 40 (2008) 778-807
! est CH3OH+HO2=CH2OH+H2O2
!
CH3O2+CH3O2=CH3O+CH3O+O2             1.1E18  -2.400    1800 ! 
 DUPLICATE                                                  !
CH3O2+CH3O2=CH3O+CH3O+O2             7.0E10   0.000     800 !
 DUPLICATE                                                  !
! Baulch DL Bowman CT Cobos CJ Cox RA Just Th Kerr JA Pilling MJ Stocker D Troe J Tsang W Walker RW Warnatz J JPCRD 34:757-1397 2005
! CL Rasmussen JG Jacobsen P Glarborg IJCK 40 (2008) 778-807
!
CH3O2+CH3O2=CH3OH+CH2O+O2            2.0E11  -0.550   -1600 ! 
! Baulch DL Bowman CT Cobos CJ Cox RA Just Th Kerr JA Pilling MJ Stocker D Troe J Tsang W Walker RW Warnatz J JPCRD 34:757-1397 2005
!
CH3O2+C2H5=CH3O+C2H5O              5.1E12   0.000   -1410 ! 
! CL Rasmussen JG Jacobsen P Glarborg IJCK 40 (2008) 778-807
! est CH3O2+CH3=CH3O+CH3O
!
CH3O2+C2H6=CH3O2H+C2H5               1.9E01   3.640   17100 ! 
! Carstensen H-H Dean AM PCI 30:995-1003 2005
!
CH2OOH=>CH2O+OH                      2.4E12  -0.925    1567 !
 !#PLOG/ 0.04                          9.6E10  -0.925    1567/ extrapolation 
 !#PLOG/ 1.0                           2.4E12  -0.925    1567/ 
 !#PLOG/ 10.                           2.5E13  -0.927    1579/ 
 !#PLOG/ 100.                          7.0E14  -1.064    1744/ 
! Ing W-C Sheng CY Bozzelli JW FPT 83:111-145 2003
!
!
! *****************************************************************************
!    C2 subset                                                                *
! *****************************************************************************
!
CH3+CH3(+M)=C2H6(+M)                 3.6E13   0.000       0 ! 
 LOW  /1.269E41 -7.0 2762/                                  !
 TROE /0.62 73 1180 1E30/                                   ! Fc=0.38exp(-T/73)+0.62exp(-T/1180)
! Baulch DL Bowman CT Cobos CJ Cox RA Just Th Kerr JA Pilling MJ Stocker D Troe J Tsang W Walker RW Warnatz J JPCRD 34:757-1397 2005
!
C2H6+H=C2H5+H2                       9.8E13   0.000    9220 ! 
! Baulch DL Bowman CT Cobos CJ Cox RA Just Th Kerr JA Pilling MJ Stocker D Troe J Tsang W Walker RW Warnatz J JPCRD 34:757-1397 2005
!
C2H6+O=C2H5+OH                       1.1E-07  6.500     274 ! 
! Mahmud K Marshall P Fontijn A JCP 88:2393-2397 1988
!
C2H6+OH=C2H5+H2O                     9.2E06   2.000     990 ! 
! Atkinson R JPC Ref Data 26:215-290 1997
!
C2H6+HO2=C2H5+H2O2                   1.1E05   2.500   16850 !
! Baulch DL Bowman CT Cobos CJ Cox RA Just Th Kerr JA Pilling MJ Stocker D Troe J Tsang W Walker RW Warnatz J JPCRD 34:757-1397 2005
!
C2H6+O2=C2H5+HO2                     7.3E05   2.500   49160 ! 
! Baulch DL Bowman CT Cobos CJ Cox RA Just Th Kerr JA Pilling MJ Stocker D Troe J Tsang W Walker RW Warnatz J JPCRD 34:757-1397 2005
!
C2H6+CH3=C2H5+CH4                    5.6E10   0.000    9418 ! 
 DUPLICATE                                                  !
C2H6+CH3=C2H5+CH4                    8.4E14   0.000   22250 ! 
 DUPLICATE                                                  !
! Baulch DL Bowman CT Cobos CJ Cox RA Just Th Kerr JA Pilling MJ Stocker D Troe J Tsang W Walker RW Warnatz J JPCRD 34:757-1397 2005
!
C2H6+CH2*=C2H5+CH3                 1.2E14   0.000       0 ! 
! Tsang W Hampson RF JPCRD 15:1087 1986  
!
C2H4+H(+M)=C2H5(+M)                  1.4E09   1.463    1355 ! 
 LOW  /2.0E39 -6.642 5769/                                  !
 TROE /-0.569 299 9147 152.4/                               !
! Miller JA Klippenstein PCCP 6:1192-1202 2004
!
C2H5+H(+M)=C2H6(+M)                  5.2E17  -0.990    1580 ! 
 LOW  /1.99E41 -7.08 6685/                                  !
 TROE /0.8422 125 2219 6882/                                !
 N2/1/ H2/2/ H2O/6/ CH4/2/ CO/1.5/ CO2/2/ C2H6/3/ AR/0.7/   !
! GRI3.0
! Stewart PH Rothem T Golden DM PCI 22:943-952
!
C2H5+O=CH3+CH2O                      4.2E13   0.000       0 ! 
! Slagle IR Sarzynski D Gutman D Miller JA Melius CF JCSFT2 84:491 1988
!
C2H5+O=CH3CHO+H                      5.3E13   0.000       0 ! 
! Slagle IR Sarzynski D Gutman D Miller JA Melius CF JCSFT2 84:491 1988
!
C2H5+O=C2H4+OH                       3.1E13   0.000       0 ! 
! Slagle IR Sarzynski D Gutman D Miller JA Melius CF JCSFT2 84:491 1988
!
C2H5+OH=C2H4+H2O                     2.4E13   0.000       0 ! 
! Tsang W Hampson RF JPCRD 15:1087 1986
!
C2H5+HO2=C2H5O+OH                  3.1E13   0.000       0 !
! Ludwig W Brandt B Friedrichs G Temps F JPCA 110:3330-3337 2006
!
C2H5+O2(+M)=C2H4+HO2(+M)             6.9E-12  6.530    -834 ! 
 LOW  /1.409E07 1.09 -1975/                                 !
 TROE /0.45 1E-30 1E30 1E30/                                !
! Miller JA Klippenstein IJCK 33:654 2001
!
C2H5+CH2O=C2H6+HCO                   5.5E03   2.810    5860 ! 
! Tsang W Hampson RF JPCRD 15:1087 1986
!
C2H5+HCO=C2H6+CO                     4.3E13   0.000       0 !
! Baggott JE Frey HM Lightfoot PD Walsh R JPC 91:3386-3393 1987
!
C2H5+CH3=C2H4+CH4                    9.0E11   0.000       0 ! 
! Baulch DL Bowman CT Cobos CJ Cox RA Just Th Kerr JA Pilling MJ Stocker D Troe J Tsang W Walker RW Warnatz J JPCRD 34:757-1397 2005
!
C2H5+C2H5=C2H6+C2H4                  1.5E12   0.000       0 ! 
! Baulch DL Cobos CJ Cox RA Esser C Frank P Just Th Kerr JA Pilling MJ Troe J Walker RW Warnatz J JPCRD 21:403 1992
!
C2H3+H(+M)=C2H4(+M)                  3.9E13   0.200       0 ! 
 LOW  /2.10E24 -1.3 0/                                      ! 
 TROE /0.5 1E-30 1E30 1E30/                                 ! 
! Harding LB Georgievskii Y Klippenstein SJ JPCA 109:4646-4656 2005  #
! Monks PS Nesbitt FL Payne WA Scanlon M Stief LJ Shallcross DE JPC 99:17151-17159 1995
!
C2H4(+M)=H2CC+H2(+M)                 8.0E12   0.440   88800 ! 
 LOW/7.0E50 -9.31 99900/
 TROE/0.735 180 1035 5417/
 H2O/6/ AR/0.7/
! Wang H IJCK 33:698-706 2001
!
C2H4+H=C2H3+H2                       2.4E02   3.620   11266 ! 
! Baulch DL Bowman CT Cobos CJ Cox RA Just Th Kerr JA Pilling MJ Stocker D Troe J Tsang W Walker RW Warnatz J JPCRD 34:757-1397 2005
!
C2H4+O=CH3+HCO                       3.9E12   0.000    1494 ! 
 DUPLICATE                                                  !
C2H4+O=CH3+HCO                       6.2E13   0.000    6855 !
 DUPLICATE                                                  ! 
! Baulch DL Bowman CT Cobos CJ Cox RA Just Th Kerr JA Pilling MJ Stocker D Troe J Tsang W Walker RW Warnatz J JPCRD 34:757-1397 2005
! Klemm RB Sutherland JW Wickramaaratchi MA Yarwood G JPC 94:3354-3357 1990
!
C2H4+O=CH2CHO+H                      1.7E12   0.000    1494 ! 
 DUPLICATE                                                  !
C2H4+O=CH2CHO+H                      2.8E13   0.000    6855 ! 
 DUPLICATE                                                  !
! Baulch DL Bowman CT Cobos CJ Cox RA Just Th Kerr JA Pilling MJ Stocker D Troe J Tsang W Walker RW Warnatz J JPCRD 34:757-1397 2005
! Klemm RB Sutherland JW Wickramaaratchi MA Yarwood G JPC 94:3354-3357 1990
!
C2H4+OH=C2H3+H2O                     1.3E-1   4.200    -860 ! 
! Senosiain JP Klippenstein SJ Miller JA JPCA 110:6960-6970 2006
!
C2H4+OH=CH3+CH2O                     1.8E05   1.68     2061 !
 !#PLOG /0.01                          5.4E00   2.92    -1733/
 !#PLOG /0.025                         3.2E01   2.71    -1172/
 !#PLOG /0.1                           5.6E02   2.36     -181/
 !#PLOG /1.                            1.8E05   1.68     2061/
 !#PLOG /10.                           2.4E09   0.56     6007/
 !#PLOG /100.                          2.8E13  -0.50    11455/
! Senosiain JP Klippenstein SJ Miller JA JPCA 110:6960-6970 2006
!
C2H4+OH=CH3CHO+H                     2.4E-2   3.91     1723 ! 
 !#PLOG /0.01                          2.4E-7   5.30    -2051./
 !#PLOG /0.025                         8.7E-5   4.57     -618./
 !#PLOG /0.1                           4.0E-1   3.54     1882./
 !#PLOG /1.                            2.4E-2   3.91     1723./
 !#PLOG /10.                           8.3E08   1.01    10507./
 !#PLOG /100.                          6.8E09   0.81    13867./
! Senosiain JP Klippenstein SJ Miller JA JPCA 110:6960-6970 2006
!
C2H4+OH=C2H3OH+H 	             3.2E05   2.19     5256 ! 
 !#PLOG /0.01                          1.0E04 ?2.60     4121./
 !#PLOG /0.025                         1.1E04   2.60     4129./
 !#PLOG /0.1                           1.5E04   2.56     4238./
 !#PLOG /1.                            3.2E05   2.19     5256./
 !#PLOG /10.                           1.9E08   1.43     7829./
 !#PLOG /100.                          8.6E10   0.75    11491./
! Senosiain JP Klippenstein SJ Miller JA JPCA 110:6960-6970 2006
!
C2H4+OH=C2H4OH    5.91E41    -10.43    4832.    ! GIM/GLA08 SEN/MIL06 # fit 1 atm param
 !#PLOG /0.01                          2.8E47 -11.64    11099./
 !#PLOG /0.025                         6.0E37  -9.76     1995./
 !#PLOG /0.025                         5.0E37  -8.68     5355./
 !#PLOG /0.1                           6.0E37  -9.65     2363./
 !#PLOG /0.1                           2.6E35  -7.79     5017./
 !#PLOG /1.                            6.0E37  -8.14     8043./
 !#PLOG /1.                            7.3E31  -6.91     2855./
 !#PLOG /10.                           6.0E37  -7.77    10736./
 !#PLOG /10.                           3.0E26  -4.87     2297./
 !#PLOG /100.                          6.0E37  -7.44    14269./
 !#PLOG /100.                          2.8E19  -2.41     1011./
! Senosiain JP Klippenstein SJ Miller JA JPCA 110:6960-6970 2006
!
C2H4+HO2=CH2OCH2+OH                   2.2E12   0.000   17200 !
! Baulch DL Bowman CT Cobos CJ Cox RA Just Th Kerr JA Pilling MJ Stocker D Troe J Tsang W Walker RW Warnatz J JPCRD 34:757-1397 2005
!
C2H4+O2=C2H3+HO2                     7.1E13   0.000   60010 ! 
! Hua H Ruscic B Wang B CP 311:335-341 2005
!
C2H4+CH3=C2H3+CH4                    6.0E07   1.560   16630 !  
! Baulch DL Bowman CT Cobos CJ Cox RA Just Th Kerr JA Pilling MJ Stocker D Troe J Tsang W Walker RW Warnatz J JPCRD 34:757-1397 2005
!
C2H2+H(+M)=C2H3(+M)                  1.7E10   1.266    2709 ! 
 LOW  /6.3E31 -4.664 3780 /                                 ! 
 TROE /0.7878 -10212 1.E-30 /                                !
 H2/2/ CO/2/ CO2/3/ H2O/5/                                  !
! Miller JA Klippenstein PCCP 6:1192-1202 2004
!  
C2H3+H=C2H2+H2                       4.5E13   0.000       0 ! 
! Monks PS Nesbitt FL Payne WA Scanlon M Stief LJ Shallcross DE JPC 99:17151-17159 1995
!
C2H3+O=CH2CO+H                       3.0E13   0.000       0 ! 
! Baulch DL Bowman CT Cobos CJ Cox RA Just Th Kerr JA Pilling MJ Stocker D Troe J Tsang W Walker RW Warnatz J JPCRD 34:757-1397 2005
!
C2H3+OH=C2H2+H2O                     2.0E13   0.000       0 ! 
! Glarborg P Alzueta MU Dam-Johansen K Miller JA CF 115:1 1998
! JAM est
!
C2H3+HO2=CH2CHO+OH                   3.0E13   0.000       0 ! 
! Tsang W Hampson RF JPCRD 15:1087 1986  
!
C2H3+O2=CH2CHOO                      8.4E31  -7.615    5201 ! ##c2h2## 
 !#PLOG /0.0013                        1.7E33  -8.873   25665./
 !#PLOG /0.013                         1.1E25  -6.337   14804./
 !#PLOG /0.13                          2.1E24  -5.813    7532./
 !#PLOG /1.0                           8.4E31  -7.615    5201./
 !#PLOG /10.                           3.4E33  -7.362    4492./
 !#PLOG /100.                          3.1E28  -5.286    3830./
! MATMIY14
!
C2H3+O2=CH2CHO+O                       3.8E11   0.192      48 ! ##c2h2## 
 !#PLOG /0.0013                        3.8E11   0.192      48./
 !#PLOG /0.013                         3.8E11   0.192      48./
 !#PLOG /1.0                           3.8E11   0.192      48./
 !#PLOG /10.                           1.1E12   0.067     523./
 !#PLOG /100.                          5.0E11   0.213     780./
! MATMIY14
!
C2H3+O2=CH2O+HCO                     4.0E17  -1.863    1166 ! ##c2h2##  
 !#PLOG /0.0013                        4.0E17  -1.863    1166./
 !#PLOG /0.013                         4.0E17  -1.863    1166./
 !#PLOG /1.00                          4.0E17  -1.863    1166./
 !#PLOG /10.0                          9.9E15  -1.971    1438./
 !#PLOG /100.                          2.0E17  -1.716    2288./
! MATMIY14
!
C2H3+O2=CH2O+H+CO                    2.2E16  -1.354     785 ! ##c2h2##   
 !#PLOG /0.0013                        2.2E16  -1.354     785./
 !#PLOG /0.013                         2.2E16  -1.354     785./
 !#PLOG /1.00                          2.2E16  -1.354     785./
 !#PLOG /10.0                          5.0E16  -1.453    1068./
 !#PLOG /100.                          1.1E16  -1.212    1942./
! MATMIY14
!
C2H3+O2=C2H2+HO2                     4.4E01   2.950     186 ! 
 !#PLOG /0.03                          9.7E00   3.120    -272./
 !#PLOG /1.0                           4.4E01   2.950     186./
 !#PLOG /60.                           7.6E11   0.000    7930./
! J Gimenez CL Rasmussen MU Alzueta P Marshall P Glarborg PCI 32 (2009) 367-375.
!
C2H3+O2=CH3O+CO                      1.9E14  -0.959     580 ! 
 !#PLOG /0.03                          5.4E13  -0.823     179./
 !#PLOG /1.0                           1.9E14  -0.959     580./
 !#PLOG /60.                           2.8E11   0.000    3130./
! J Gimenez CL Rasmussen MU Alzueta P Marshall P Glarborg PCI 32 (2009) 367-375.
!
C2H3+O2=CH3+CO2                      2.1E13  -0.959     580 ! 
 !#PLOG /0.03                          6.0E12  -0.823     179./
 !#PLOG /1.0                           2.1E13  -0.959     580./
 !#PLOG /60.                           1.3E10   0.000    3130./
! J Gimenez CL Rasmussen MU Alzueta P Marshall P Glarborg PCI 32 (2009) 367-375.
!
C2H3+CH2O=C2H4+HCO                   5.4E03   2.810    5860 !          
! Tsang W Hampson RF JPCRD 15:1087 1986  
!
C2H3+HCO=C2H4+CO                     9.0E13   0.000       0 ! 
! Tsang W Hampson RF JPCRD 15:1087 1986  
!
C2H3+CH3=C2H2+CH4                    9.0E12   0.000    -765 ! 
! Stoliarov SI Knyazev VD Slagle IR JPCA 104:9687-9697 2000
!
C2H3+CH=CH2+C2H2                     5.0E13   0.000       0 ! 
! JAM est
!
C2H3+C2H3=C2H4+C2H2                  1.5E13   0.000       0 ! 
! Fahr A Laufer A Klein R Braun W JPC 95:3218-3224 1991
!
C2H3+C2H=C2H2+C2H2                   3.0E13   0.000       0 ! 
! JAM est
!
C2H2+M=C2H+H+M                       9.1E30  -3.700  127138 ! 
     H2/2/ CO/2/ CO2/3/  H2O/5/
! Tsang W Hampson RF JPCRD 15:1087 1986  
!
C2H+H2=C2H2+H                        4.1E05   2.390     864 ! 
! Harding LB Schatz GC Chiles RA JCP 76:5172-5173 1982
!
C2H2+O=HCCO+H                        1.4E07   2.000    1900 ! 
! Glarborg P Alzueta MU Dam-Johansen K Miller JA CF 115:1 1998
!
C2H2+O=CH2+CO                        6.1E06   2.000    1900 ! 
! Glarborg P Alzueta MU Dam-Johansen K Miller JA CF 115:1 1998
!
C2H2+O=C2H+OH                        3.2E15  -0.600   15000 ! 
! P Glarborg RJ Kee JA Miller CNF 65 (1986) 177-202.
!
C2H2+OH=CH3+CO                       1.3E09   0.73     2579 ! 
 !#PLOG   / .01                        4.8E05   1.68     -330./
 !#PLOG   / .025                       4.4E06   1.40      227./
 !#PLOG   / 0.1                        7.7E07   1.05     1115./
 !#PLOG   / 1.0                        1.3E09   0.73     2579./
 !#PLOG   / 10.0                       4.3E08   0.92     3736./
 !#PLOG   / 100.                       8.3E05   1.77     4697./ 
! Senosiain JP Klippenstein SJ Miller JA JPCA 109:6045-6055 2005
!
C2H2+OH=HCCOH+H                      2.4E06   2.0     12713 ! 
 !#PLOG  /.01                          2.8E05   2.28    12419./
 !#PLOG  /.025                         7.5E05   2.16    12547./
 !#PLOG  /.1                           1.8E06   2.04    12669./
 !#PLOG  / 1.0                         2.4E06   2.0     12713./
 !#PLOG  / 10.                         3.2E06   1.97    12810./
 !#PLOG  / 100.                        7.4E06   1.89    13603./ 
! Senosiain JP Klippenstein SJ Miller JA JPCA 109:6045-6055 2005
!
C2H2+OH=HCCHOH   2.87E64  -18.57   10009  !  SENOSIAIN,KLIPP.,& MILLER 2005 # fit 1 atm
 !#PLOG   / .01                        2.9E64  -18.57   10009. /
 !#PLOG   / .01                        2.6E33   -7.36    6392. /
 !#PLOG   / .025                       4.7E59  -16.87    9087. /
 !#PLOG   / .025                       4.4E32   -7.02    5933. /
 !#PLOG   / 0.1                        1.2E28   -5.56    3724. /
 !#PLOG   / 0.1                        6.4E42   -9.96   11737. /
 !#PLOG   / 1.0                        1.9E44  -11.38    6299. /
 !#PLOG   / 1.0                        3.5E31   -6.20    6635. /
 !#PLOG   / 10.0                       1.5E24   -4.06    3261. /
 !#PLOG   / 10.0                       4.5E31   -5.92    8761. /
 !#PLOG   / 100.                       6.2E20   -2.80    2831. /
 !#PLOG   / 100.                       1.6E29   -4.91    9734. /
! Senosiain JP Klippenstein SJ Miller JA JPCA 109:6045-6055 2005
!
C2H2+OH=CH2CO+H                      7.5E06    1.55    2106 !   
 !#PLOG   /.01                         1.7E03    2.56    -844. /
 !#PLOG   /.025                        1.5E04    2.28    -292. /
 !#PLOG   / 0.1                        3.0E05    1.92     598. /
 !#PLOG   / 1.0                        7.5E06    1.55    2106. /
 !#PLOG   / 10.0                       5.1E06    1.65    3400. /
 !#PLOG   / 100.                       1.5E04    2.45    4477. /
! Senosiain JP Klippenstein SJ Miller JA JPCA 109:6045-6055 2005
!
C2H2+OH=C2H+H2O                   2.63E6    2.14   17060. !
!Senosiain JP Klippenstein SJ Miller JA JPCA 109:6045-6055 2005
!
C2H2+HO2=CH2CHO+O                    6.2E00   2.986   10646 !           pw 1 atm *
!C2H2+HO2=CH2CHO+O                    3.6E02   2.597   14658 !           pw 60 atm *
C2H2+HO2=CH2CHOO                     2.2E54 -14.157   26680 !           pw 1 atm *
!C2H2+HO2=CH2CHOO                     5.5E91 -24.802   44250 !           pw 60 atm *
!C2H2+HO2=CYCOOC.                     7.2E07  -0.987    5472 !           pw 1 atm *
!C2H2+HO2=CYCOOC.                     1.3E27  -6.340   14563 !           pw 60 atm *
!C2H2+HO2=C2H3+O2                     1.7E09   0.826   19496 !           pw 60 atm *
C2H2+HO2=CH2O+HCO                    1.0E07   1.1150   10990 !           pw 1 atm *
!C2H2+HO2=CH2O+HCO                    1.3E13  -0.470   18253 !           pw 60 atm *
!
C2H2+O2=HCO+HCO                      3.3E13   0.000   44500 !           pw #
!
C2H2+CH2*=C2H2+CH2                 4.0E13   0.000       0 !  
! Hack W Koch M Wagener R Wagner HGg BBPC 93:165 1989
!
H2CC=C2H2                            1.0E07   0.000       0 !  
! JAM est
!
H2CC+H=C2H2+H                        1.0E14   0.000       0 !        
! Laskin A Wang H Law CK IJCK 32:589 2000
!
H2CC+OH=CH2CO+H                      2.0E13   0.000       0 !         
! Laskin A Wang H Law CK IJCK 32:589 2000
!
H2CC+O2=CH2+CO2                      1.0E13   0.000       0 ! 
! Laskin A Wang H CPL 303:43-49 1999
! JAM est prod
!
C2+H2=C2H+H                          4.0E05   2.40     1000 ! 
! Glarborg P Alzueta MU Dam-Johansen K Miller JA CF 115:1 1998
! 
C2H+O=CH+CO                          5.0E13   0.000       0 !
! Glarborg P Alzueta MU Dam-Johansen K Miller JA CF 115:1 1998
! JAM est
! 
C2H+OH=HCCO+H                        2.0E13   0.000       0 ! 
! Glarborg P Alzueta MU Dam-Johansen K Miller JA CF 115:1 1998
! JAM est
! 
C2H+OH=C2+H2O                        4.0E07   2.000    8000 ! 
! Glarborg P Alzueta MU Dam-Johansen K Miller JA CF 115:1 1998
! JAM est
! 
C2H+O2=CO+CO+H                       4.7E13  -0.16        0 !         
! Thiesemann H Taatjes CA CPL 270:580-586 1997
!
C2H+CH4=CH3+C2H2                     7.2E12   0.000     976 !
! Opansky BJ Leone SR JPC 100:4888-4892 1996
!
C2+M=C+C+M                           1.5E16   0.000  142300 !  
! Kruse T Roth P JPCA 101:2138-2146 1997
!
C2+O=C+CO                            1.0E14   0.000       0 ! 
! est
!
C2+OH=C2O+H                          5.0E13   0.000       0 ! 
! Glarborg P Alzueta MU Dam-Johansen K Miller JA CF 115:1 1998
! JAM est
! 
C2+O2=CO+CO                          9.0E12   0.000     980 ! 
! Baughum SL Oldenborg RC ACS SS (ed TM Sloane) 249:257-266 1984
! JAM est prod
!
 C2H5OH(+M)=CH2OH+CH3(+M)           5.9E23  -1.680   91163 ! RAS/GLA08b MAR99
   LOW  /2.88E85 -18.9 109914/                               !
   TROE /0.5 200 890 4600/                                   !
   H2O/5/ H2/2/ CO2/3/ CO/2/                                 !
 C2H5OH(+M)=C2H5+OH(+M)             1.3E23  -1.540   96005 ! RAS/GLA08b MAR99
   LOW  /3.25E85 -18.81 114930/                              !
   TROE /0.5 300 900 5000/                                   !
   H2O/5/ H2/2/ CO2/3/ CO/2/                                 !
 C2H5OH(+M)=C2H4+H2O(+M)            2.8E13   0.090   66136 ! RAS/GLA08b MAR99
   LOW  /2.57E83 -18.85 86452/                               !
   TROE /0.7 350 800 3800/                                   !
   H2O/5/                                                    !
 C2H5OH(+M)=CH3CHO+H2(+M)           7.2E11   0.095   91007 ! RAS/GLA08b MAR99
   LOW  /4.46E87 -19.42 115586/                              !
   TROE /0.9 900 1100 3500/                                  !
   H2O/5/                                                    !
!
 C2H5OH+H=sC2H4OH+H2                2.6E07   1.650    2827 ! RAS/GLA08b MAR99
 C2H5OH+H=C2H4OH+H2               1.2E07   1.800    5098 ! RAS/GLA08b MAR99
 C2H5OH+H=C2H5O+H2                1.5E07   1.650    3038 ! RAS/GLA08b MAR99
 C2H5OH+O=sC2H4OH+OH                1.9E07   1.850    1824 ! RAS/GLA08b MAR99
 C2H5OH+O=C2H4OH+OH               9.4E07   1.700    5459 ! RAS/GLA08b MAR99
 C2H5OH+O=C2H5O+OH                1.6E07   2.000    4448 ! RAS/GLA08b MAR99
 C2H5OH+OH=sC2H4OH+H2O              4.6E11   0.150       0 ! RAS/GLA08b MAR99
 C2H5OH+OH=C2H4OH+H2O             1.7E11   0.270     600 ! RAS/GLA08b MAR99
 C2H5OH+OH=C2H5O+H2O              7.5E11   0.300    1634 ! RAS/GLA08b MAR99
 C2H5OH+HO2=sC2H4OH+H2O2            8.2E03   2.550   10750 ! RAS/GLA08b MAR99
 C2H5OH+HO2=C2H4OH+H2O2           1.2E04   2.550   15750 ! RAS/GLA08b MAR99
 C2H5OH+HO2=C2H5O+H2O2            2.5E12   0.000   24000 ! RAS/GLA08b MAR99 
 C2H5OH+CH3=sC2H4OH+CH4             7.3E02   2.990    7948 ! RAS/GLA08b MAR99
 C2H5OH+CH3=C2H4OH+CH4            2.2E02   3.180    9622 ! RAS/GLA08b MAR99
 C2H5OH+CH3=C2H5O+CH4             1.5E02   2.990    7649 ! RAS/GLA08b MAR99
!
 sC2H4OH+M=CH3CHO+H+M                 1.0E14   0.000   25000 ! RAS/GLA08b MAR99
 sC2H4OH+O=CH3CHO+OH                  1.0E14   0.000       0 ! RAS/GLA08b MAR99
 sC2H4OH+H=CH2OH+CH3                  3.0E13   0.000       0 ! RAS/GLA08b MAR99
 sC2H4OH+H=C2H4+H2O                   3.0E13   0.000       0 ! RAS/GLA08b MAR99
 sC2H4OH+OH=CH3CHO+H2O                5.0E12   0.000       0 ! RAS/GLA08b MAR99
 sC2H4OH+HO2=CH3CHO+OH+OH             4.0E13   0.000       0 ! RAS/GLA08b MAR99
 sC2H4OH+O2=CH3CHO+HO2                8.4E15  -1.200       0 ! RAS/GLA08b MAR99
   DUPLICATE                                                 !
 sC2H4OH+O2=CH3CHO+HO2                4.8E14   0.000    5017 ! 
   DUPLICATE                                                 !
!
 C2H4OH=C2H3OH+H                   2.2E05   2.840   32920 ! GIM/GLA09 YAM/LAY99 kinf
 C2H5O=C2H4OH                     2.8E-29 11.900    4450 ! GIM/GLA09 ZHA/LI05, kinf
 C2H4OH+H=CH3+CH2OH                 1.0E14   0.000       0 ! GIM/GLA09 est=C2H5+H
 C2H4OH+H(+M)=C2H5OH(+M)          5.2E17  -0.990    1580 ! GIM/GLA09 est=C2H5+H+M
   LOW  /1.99E41 -7.08 6685/                                 !
   TROE /0.8422 125 2219 6882/                               !
 C2H4OH+O=CH2O+CH2OH                4.0E13   0.000       0 ! GIM/GLA09 est=C2H5+O
!C2H4OH+O=HOCH2CHO+H                5.0E13   0.000       0 ! GIM/GLA09 est=C2H5+O
 C2H4OH+OH=C2H3OH+H2O              2.4E13   0.000       0 ! GIM/GLA09 est=C2H5+OH	
!C2H4OH+OH=HOC2H3OH                3.3E13   0.000       0 ! GIM/GLA09 MEL/SID03, 298K	
 C2H4OH+HO2=C2H5OH+O2             1.0E12   0.000       0 ! GIM/GLA09 est=C2H5+HO2
 C2H4OH+HO2=>CH2OH+CH2O+OH          3.0E13   0.000       0 ! GIM/GLA09 est=C2H5+HO2 
!C2H4OH+HO2=HOCH2CH2O+OH            3.0E13   0.000       0 ! GIM/GLA09 est=C2H5+HO2 
 C2H4OH+O2=C2H3OH+HO2              1.4E07   1.090   -1975 ! GIM/GLA09 est=C2H5+O2
 C2H4OH+O2(+M)=HOCH2CH2OO(+M)       2.0E10   0.980     -64 ! GIM/GLA09 est=C2H5+O2
   LOW  /8.486E29 -4.29 220/                                 !
   TROE /0.897 1E-30 601 1E30/                               !
!
 C2H5O(+M)=CH3+CH2O(+M)             1.1E13   0.000   16790 ! RAS/GLA08b CAR/VIS99
   LOW  /2.0E16 0.0 13970/                                   ! 
   TROE /0.78 1E-30 1235 1E30/                               ! fit to data from [CAL/VIS99], 391-473K
 C2H5O=CH3CHO+H                     1.3E13   0.000   20060 ! RAS/GLA08b high-P limit [CAR/VIS99]
 C2H5O+H=CH3CHO+H2                  3.0E13   0.000       0 ! RAS/GLA08b est
 C2H5O+OH=CH3CHO+H2O                3.0E13   0.000       0 ! RAS/GLA08b est
 C2H5O+O2=CH3CHO+HO2                1.5E10   0.000     645 ! RAS/GLA08b FIT/DEV99
 C2H5O+CO=C2H5+CO2                  9.5E25  -4.930    9080 ! RAS/GLA08b (=CH3O+CO=CH3+CO2[WAN/GU99])
!
! 
CH3CHO(+M)=CH3+HCO(+M)               4.3E22  -1.880   85480 ! 
 LOW  /2.22E76 -11.81 95040/                                !
 TROE /0.23 80 7000 1E30/                                   !
! Gupte KS Kiefer JH Tranter RS Klippenstein SJ Harding LB PCI 31:167-174 2006
! CL Rasmussen JG Jacobsen P Glarborg IJCK 40 (2008) 778-807: fit to Fc=0.601T^(-0.162)exp(-1.07/RT)
!
CH3CHO+H=CH3CO+H2                    4.7E13  -0.350    3000 ! 
! Marinov NM IJCK 31:183 1999
!
CH3CHO+H=CH2CHO+H2                   1.9E12   0.400    5359 ! 
! Marinov NM IJCK 31:183 1999
!
CH3CHO+O=CH3CO+OH                    1.8E18  -1.900    2975 ! 
! Marinov NM IJCK 31:183 1999
!
CH3CHO+O=CH2CHO+OH                   3.7E13  -0.200    3556 ! 
! Marinov NM IJCK 31:183 1999
!
CH3CHO+OH=CH3CO+H2O                  2.4E11   0.300   -1000 ! 
! Taylor PH Rahman MS Arif M Dellinger B Marshall P PCI 26:497 1996
! Cameron M Sivakumaran V Dillon TJ Crowley JN PCCP 2002 4:3628 2002
! CL Rasmussen JG Jacobsen P Glarborg IJCK 40 (2008) 778-807
!
CH3CHO+OH=CH2CHO+H2O                 3.0E13  -0.600     800 ! 
! Taylor PH Rahman MS Arif M Dellinger B Marshall P PCI 26:497 1996
! Cameron M Sivakumaran V Dillon TJ Crowley JN PCCP 2002 4:3628 2002
! CL Rasmussen JG Jacobsen P Glarborg IJCK 40 (2008) 778-807
!
CH3CHO+HO2=CH3CO+H2O2                2.4E19  -2.200   14030 ! 
! Marinov NM IJCK 31:183 1999
!
CH3CHO+HO2=CH2CHO+H2O2               2.3E11   0.400   14864 !
! Marinov NM IJCK 31:183 1999
!
CH3CHO+O2=CH3CO+HO2                  1.2E05   2.500   37554 ! 
! Baulch DL Bowman CT Cobos CJ Cox RA Just Th Kerr JA Pilling MJ Stocker D Troe J Tsang W Walker RW Warnatz J JPCRD 34:757-1397 2005
!
CH3CHO+CH3=CH3CO+CH4                 3.9E-07  5.800    2200 ! 
! Marinov NM IJCK 31:183 1999
!
CH3CHO+CH3=CH2CHO+CH4                2.5E01   3.150    5727 ! 
! Marinov NM IJCK 31:183 1999
!
 CH2OCH2=CH2CHO+H                       1.8E13   0.200   71780 ! GIM/GLA09 JOS/WAN05
 CH2OCH2=CH3+HCO                        5.6E13   0.400   61880 ! GIM/GLA09 JOS/WAN05
 CH2OCH2=CH3CO+H                        2.4E13   0.250   65310 ! GIM/GLA09 JOS/WAN05
 CH2OCH2=CH2CO+H2                       3.6E12  -0.200   63030 ! GIM/GLA09 JOS/WAN05
 CH2OCH2=CH3CHO                         3.2E12  -0.750   46424 ! GIM/GLA09 JOS/WAN05
 CH2OCH2=C2H2+H2O                       7.6E12   0.060   69530 ! GIM/GLA09 JOS/WAN05
!CH2OCH2+H=CH3CHO+H                     5.6E13   0.000   10950 ! GIM/GLA09 JOS/WAN05
 CH2OCH2+H=CH2OCH+H2                     2.0E13   0.000    8310 ! GIM/GLA09 LIF/BEN83
 CH2OCH2+H=C2H3+H2O                     5.0E09   0.000    5000 ! GIM/GLA09 LIF/BEN83
 CH2OCH2+H=C2H4+OH                      9.5E10   0.000    5000 ! GIM/GLA09 LIF/BEN83
 CH2OCH2+O=CH2OCH+OH                     1.9E12   0.000    5250 ! GIM/GLA09 BOG/HAN78
 CH2OCH2+OH=CH2OCH+H2O                   1.8E13   0.000    3610 ! GIM/GLA09 BAL/WAL84
 CH2OCH2+HO2=CH2OCH+H2O2                 4.0E12   0.000   17000 ! GIM/GLA09 DAG/SIM96
 CH2OCH2+O2=CH2OCH+HO2                   4.0E13   0.000   61500 ! GIM/GLA09 DAG/SIM96
 CH2OCH2+CH3=CH2OCH+CH4                  1.1E12   0.000   11830 ! GIM/GLA09 BAL/WAL84
!
C2H3OH+H=HCCHOH+H2                  2.4E02   3.630   11266 ! 
! J Gimenez CL Rasmussen MU Alzueta P Marshall P Glarborg PCI 32 (2009) 367-375.
! est C2H4+H
!
C2H3OH+H=CH2CHO+H2                  1.5E07   1.700    3000 ! 
! J Gimenez CL Rasmussen MU Alzueta P Marshall P Glarborg PCI 32 (2009) 367-375.
! est C2H5OH+H=C2H5O+H2 
!
C2H3OH+O=CH2OH+HCO                  3.9E12   0.000    1494 ! 
 DUPLICATE                                                 !
C2H3OH+O=CH2OH+HCO                  6.2E13   0.000    6855 !
 DUPLICATE                                                 !
! J Gimenez CL Rasmussen MU Alzueta P Marshall P Glarborg PCI 32 (2009) 367-375.
! est C2H4+O
!
C2H3OH+O=CH2CHO+OH                  1.6E07   2.000    4400 ! 
! J Gimenez CL Rasmussen MU Alzueta P Marshall P Glarborg PCI 32 (2009) 367-375.
! est C2H5OH+O=C2H5O+OH   
!
C2H3OH+OH=HCCHOH+H2O                1.3E-1   4.200    -860 ! GIM/GLA08 C2H4+OH  
! J Gimenez CL Rasmussen MU Alzueta P Marshall P Glarborg PCI 32 (2009) 367-375.
!
C2H3OH+OH=CH2CHO+H2O                7.5E11   0.300    1600 ! C2H5OH+OH=C2H5O+H2O 
! CL Rasmussen JG Jacobsen P Glarborg IJCK 40 (2008) 778-807
!
C2H3OH+O2=>CH2O+HCO+OH              3.5E07   1.800   39000 ! 
! J Gimenez CL Rasmussen MU Alzueta P Marshall P Glarborg PCI 32 (2009) 367-375.
! est C2H4+O2
!
HCCHOH=HCCOH+H                       1.1E31  -6.153   51383 ! 
 !#PLOG   /0.04                        4.4E29  -6.153   51383. / extrapolation
 !#PLOG   /1.0                         1.1E31  -6.153   51383. / 
 !#PLOG   /10.                         1.5E32  -6.168   52239. / 
 !#PLOG   /100.                        5.5E29  -5.057   52377. / 
! Ing W-C Sheng CY Bozzelli JW FPT 83:111-145 2003
!
HCCHOH+H=CH2CHO+H                    5.0E13   0.000       0 ! 
! Glarborg P Alzueta MU Dam-Johansen K Miller JA CF 115:1 1998
! JAM est
! 
HCCHOH+H=HCCOH+H2                    4.5E13   0.000       0 !           C2H3+H est *
!
HCCHOH+O=OCHCHO+H                    5.0E13   0.000       0 ! 
! Glarborg P Alzueta MU Dam-Johansen K Miller JA CF 115:1 1998
! JAM est
!
HCCHOH+OH=HCCOH+H2O                  2.0E13   0.000       0 !           C2H3+OH est *
!
!HCCHOH+O2=HCCOH+HO2                  1.4E02   3.400    3700 ! 
! CL Rasmussen JG Jacobsen P Glarborg IJCK 40 (2008) 778-807
! est C2H3+O2=C2H2+HO2
!
HCCHOH+O2=OCHCHO+OH                  2.5E12   0.000       0 !           SIE/ZET95 *
!
HCCHOH+O2=HOCHO+HCO                  1.7E12   0.000       0 !           pr br 40% *
!
HCCHOH+CH2O=C2H3OH+HCO              5.4E03   2.810    5860 !           c2h3+ch2o
!
HCCHOH+HCO=C2H3OH+CO                9.0E13   0.000       0 !           c2h3+hco
!
HCCHOH+CH3=HCCOH+CH4                 2.1E13   0.000       0 !           c2h3+ch3
!
CH2OCH=CH2CHO                        8.7E31  -6.900   14994 ! 
! Joshi A You X Barckholtz TA Wang H JPCA 109:8016-8027 2005
!
CH2OCH=CH2CO+H                       5.0E13   0.000   14863 ! 
! Joshi A You X Barckholtz TA Wang H JPCA 109:8016-8027 2005
!
CH2OCH=CH3+CO                        7.1E12   0.000   14280 ! 
! Joshi A You X Barckholtz TA Wang H JPCA 109:8016-8027 2005
!
CH2CHO=CH2CO+H                       1.3E34  -6.57    49454 ! 
 !#PLOG   / 0.01                       2.4E25  -4.800   43424./
 !#PLOG   / 0.1                        2.4E30  -5.860   46114./
 !#PLOG   / 1.0                        1.3E34  -6.57    49454./
 !#PLOG   / 10.                        3.5E36  -6.920   52979./
 !#PLOG   / 100.                       1.2E36  -6.48    55191./
! Senosiain JP Klippenstein SJ Miller JA JPCA 110:5772-5781 2006
!
 CH2CHO=CH3+CO                       6.5E34    -6.87    47191 ! 
 !#PLOG /0.01                          1.2E30    -6.07    41332./
 !#PLOG /0.025                         1.5E31    -6.27    42478./
 !#PLOG /0.1                           6.4E32    -6.57    44282./
 !#PLOG /1.                            6.5E34    -6.87    47191./
 !#PLOG /10.                           2.2E35    -6.76    49548./
 !#PLOG /100.                          2.2E33    -5.97    50448./
! Senosiain JP Klippenstein SJ Miller JA JPCA 110:5772-5781 2006
!
CH2CHO+H=CH3+HCO                     1.0E14   0.000       0 ! 
! JAM est
! 
CH2CHO+H=CH3CO+H                     3.0E13   0.000       0 ! 
! JAM est
! 
CH2CHO+H=CH2CO+H2                    2.0E13   0.000       0 ! 
! CL Rasmussen JG Jacobsen P Glarborg IJCK 40 (2008) 778-807
! est CH3O+H=CH2O+H2
!
CH2CHO+O=CH2CO+OH                    5.0E13   0.000       0 !
! Glarborg P Alzueta MU Dam-Johansen K Miller JA CF 115:1 1998
! JAM est
! 
CH2CHO+OH=CH2CO+H2O                  2.0E13   0.000       0 ! 
! Glarborg P Alzueta MU Dam-Johansen K Miller JA CF 115:1 1998
! JAM est
! 
CH2CHO+OH=CH2OH+HCO                  1.0E13   0.000       0 ! 
! JAM est
! 
CH2CHO+O2=CH2O+CO+OH                 5.7E17  -1.757   11067 ! 
 !#PLOG /1.                            5.7E17  -1.757   11067./
 !#PLOG /10.                           1.1E14  -0.610   11422./
 !#PLOG /100.                          1.5E-10  6.690    4868./ 
! Ing W-C Sheng CY Bozzelli JW FPT 83:111-145 2003
!
CH2CHO+CH3=C2H5+CO+H                 4.9E14  -0.500       0 ! 
! Marinov NM Pitz WJ Westbrook CK Castaldi MJ Senkan SM CST 116:211 1996
!
CH2CHO+HO2=CH2O+HCO+OH               7.0E12  -0.500       0 ! 
! Marinov NM IJCK 31:183 1999
!
CH2CHO+HO2=CH3CHO+O2                 3.0E12  -0.500       0 ! 
! Marinov NM IJCK 31:183 1999
!
CH2CHO+CH2=C2H4+HCO                  5.0E13   0.000       0 !          
! JAM est
!
CH2CHO+CH=C2H3+HCO                   1.0E14   0.000       0 !          
! JAM est
!
CH3CO=CH3+CO                         6.5E18    -2.52    16436 ! 
 !#PLOG /0.01                          6.9E14    -1.97    14585./
 !#PLOG /0.025                         2.4E15    -2.00    14805./
 !#PLOG /0.1                           2.0E16    -2.09    15197./
 !#PLOG /1.                            6.5E18    -2.52    16436./
 !#PLOG /10.                           8.2E19    -2.55    17263./
 !#PLOG /100.                          1.3E20    -2.32    18012./
! Senosiain JP Klippenstein SJ Miller JA JPCA 110:5772-5781 2006
!
CH2CO+H=CH3CO                        2.3E08   1.610    2627 ! kinf #
! Senosiain JP Klippenstein SJ Miller JA JPCA 110:5772-5781 2006 # tjek
!
CH3CO+H=CH3+HCO                      2.1E13   0.000       0 ! 
! Bartels M Edelbuttal J Hoyermann K PCI 23:131 1991
! Ohmori K Miyoshi A Matsui H Washida N JPC 94:3253 1990
!
CH3CO+H=CH2CO+H2                     1.2E13   0.000       0 ! 
! Bartels M Edelbuttal J Hoyermann K PCI 23:131 1991
! Ohmori K Miyoshi A Matsui H Washida N JPC 94:3253 1990
!
CH3CO+O=CH3+CO2                      1.6E14   0.000       0 ! 
! Baulch DL Bowman CT Cobos CJ Cox RA Just Th Kerr JA Pilling MJ Stocker D Troe J Tsang W Walker RW Warnatz J JPCRD 34:757-1397 2005
!
CH3CO+O=CH2CO+OH                     5.3E13   0.000       0 ! 
! Baulch DL Bowman CT Cobos CJ Cox RA Just Th Kerr JA Pilling MJ Stocker D Troe J Tsang W Walker RW Warnatz J JPCRD 34:757-1397 2005
!
CH3CO+OH=CH2CO+H2O                   1.2E13   0.000       0 ! 
! Tsang W Hampson RF JPCRD 15:1087 1986  
!
CH3CO+CH3O2=CH3+CO2+CH3O             2.4E13   0.000       0 ! 
! Tsang W Hampson RF JPCRD 15:1087 1986  
!
CH3CO+CH3=C2H6+CO                    3.3E13   0.000       0 ! 
! Adachi H Basco N James DGL IJCK 13:1251-1276 1981
!
CH3CO+CH3=CH2CO+CH4                  5.3E13   0.000       0 ! 
! Adachi H Basco N James DGL IJCK 13:1251-1276 1981
!
CH3CO+O2=CH2O+CO+OH                  1.9E12   0.000       0 ! 
! Tyndall GS Orlando JJ Wallington TJ Hurley MD IJCK 1997, 29, 655-663 (CH3CO+O2=OH+PROD)
!
CH2+CO(+M)=CH2CO(+M)                 8.1E11   0.500    4510 ! 
 LOW  / 2.69E33 -5.11 7095/
 TROE/ 0.5907 275 1226 5185 /
 N2/1.0/ H2O/6/  AR/0.7/
! GRI2.11
!
CH2CO+H=CH3+CO                       3.3E10   0.851    2840 ! 
! Hranisavljevic J Kumaran SS Michael JV PCI 27:159-166 1998
!
CH2CO+H=HCCO+H2                      3.0E07   2.000   10000 ! 
! JAM est
!
CH2CO+O=CO2+CH2                      1.8E12   0.000    1350 ! 
! Washida N Hatakeyama S Takagi H Kyogoku T Sato S JCP 78:4533-4540 1983
!
CH2CO+O=HCCO+OH                      2.0E07   2.000   10000 ! 
! JAM est
!
CH2CO+OH=CH2OH+CO                    1.0E12   0.000   -1013 ! 
! Grussdorf J Nolte J Temps F Wagner HGg Ber. Bun. Phys. Chem. 98:546-553 1994
! Baulch DL Bowman CT Cobos CJ Cox RA Just Th Kerr JA Pilling MJ Stocker D Troe J Tsang W Walker RW Warnatz J JPCRD 34:757-1397 2005
!
CH2CO+OH=CH3+CO2                     6.7E11   0.000   -1013 ! 
! Grussdorf J Nolte J Temps F Wagner HGg Ber. Bun. Phys. Chem. 98:546-553 1994
! Baulch DL Bowman CT Cobos CJ Cox RA Just Th Kerr JA Pilling MJ Stocker D Troe J Tsang W Walker RW Warnatz J JPCRD 34:757-1397 2005
!
CH2CO+OH=HCCO+H2O                    1.0E07   2.000    3000 ! 
! JAM est
!
CH2CO+CH2*=C2H4+CO                 1.6E14   0.000       0 !         
! Hack W Koch M Wagener R Wagner HGg BBPC 93:165 1989
!
HCCOH+H=HCCO+H2                      3.0E07   2.000    1000 ! 
! JAM est
!
HCCOH+O=HCCO+OH                      2.0E07   2.000    1900 ! 
! JAM est
!
HCCOH+OH=HCCO+H2O                    1.0E07   2.000    1000 ! 
! JAM est
!
CH+CO(+M)=HCCO(+M)                   5.0E13   0.000       0 !
 LOW  / 2.7E28 -3.74 1936/
 TROE/ 0.5757 237 1652 5069 /
 N2/1.0/ H2O/6/  AR/0.7/  H2/2.0/ CH4/2.0/ CO/1.5/ CO2/2.0/ C2H6/3.0/
! GRI2.11
!
HCCO+H=CH2*+CO                     1.5E14   0.000       0 !       
! Baulch DL Cobos CJ Cox RA Esser C Frank P Just Th Kerr JA Pilling MJ Troe J Walker RW Warnatz J JPCRD 21:403 1992
!
HCCO+O=CO+CO+H                       1.0E14   0.000       0 ! 
! Baulch DL Cobos CJ Cox RA Esser C Frank P Just Th Kerr JA Pilling MJ Troe J Walker RW Warnatz J JPCRD 21:403 1992
!
HCCO+OH=CO+HCOH                      1.9E16  -0.590     145 ! ##c2h2## 
! MAILIN14
HCCO+OH=CH2+CO2                      9.0E04   2.090   -2196 ! ##c2h2##
! MAILIN14
HCCO+OH=C2O+H2O                      6.9E04   2.400    2357 ! ##c2h2##
! MAILIN14
!
HCCO+O2=CO2+CO+H                     4.9E12  -0.142    1150 ! 
! Klippenstein SJ Miller JA Harding LB PCI 29:1209-1217 2002
!
HCCO+O2=CO+CO+OH                     1.6E11  -0.020    1020 ! 
! Klippenstein SJ Miller JA Harding LB PCI 29:1209-1217 2002
!
HCCO+O2=HCO+CO+O                     2.2E02   2.690    3540 ! 
! Klippenstein SJ Miller JA Harding LB PCI 29:1209-1217 2002
!
HCCO+CH2=C2H3+CO                     3.0E13   0.000       0 ! 
! JAM est
!
HCCO+CH=C2H2+CO                      5.0E13   0.000       0 !
! JAM est
!
HCCO+HCCO=C2H2+CO+CO                 1.0E13   0.000       0 ! 
! JAM est
!
C2O+M=C+CO+M                         2.0E15   0.000   44200 !           
! FRI/WAG98 est #
!
C2O+H=CH+CO                          1.3E13   0.000       0 ! 
! Bauer W Becker KH Meuser R BBPC 89:340 1985
!
C2O+O=CO+CO                          5.2E13   0.000       0 ! 
! Bauer W Becker KH Meuser R BBPC 89:340 1985
!
C2O+OH=CO+CO+H                       2.0E13   0.000       0 !
! JAM est
!
C2O+O2=CO+CO+O                       1.0E13   0.000    2600 ! 
! Becker KH Konig R Meuser R Wiesen P Bayes KD J Photochem Photobiol A 64:1-14 1992
! Williamson DG Bayes KD JACS 89:3390 1967
!
C2O+O2=CO+CO2                        1.0E13   0.000    2600 !  
! Becker KH Konig R Meuser R Wiesen P Bayes KD J Photochem Photobiol A 64:1-14 1992
! Williamson DG Bayes KD JACS 89:3390 1967
!
C2O+C=CO+C2                          1.0E14   0.000       0 !
! FRI/WAG98 est #
!
!
OCHCHO=CH2O+CO                       2.6E12   0.000   51100 ! 1 atm
 DUPLICATE                                                  
OCHCHO=CH2O+CO                       7.6E11   0.000   53000 ! CH2O = HCOH 
 DUPLICATE                                                 !
! Friedrichs G Colberg M Dammeier J Bentz T Olzmann M Phys. Chem. Chem. Phys. 10 (2008) 6520-6533.
!
OCHCHO=CO+CO+H2                      3.8E12   0.000   53500 ! 1 atm
! Friedrichs G Colberg M Dammeier J Bentz T Olzmann M Phys. Chem. Chem. Phys. 10 (2008) 6520-6533.
!
OCHCHO=HCO+HCO                       1.5E13   0.000   58600 ! 1 atm
! Friedrichs G Colberg M Dammeier J Bentz T Olzmann M Phys. Chem. Chem. Phys. 10 (2008) 6520-6533.
!
OCHCHO+H=CH2O+HCO                    5.4E13   0.000    4300 !           
! Colberg, M., Friedrichs, G. J. Phys. Chem. A 110 (2006) 160-170.
!
OCHCHO+O=OCHCO+OH                    4.2E11   0.570    2760 !           
! pw, est=CH2O+O
!
OCHCHO+OH=OCHCO+H2O                  4.0E06   2.000   -1630 !          
! Feierabend, K.J., Zhu, L., Talukdar, R.K., Burkholder, J.B. J. Phys. Chem. A 112 (2008) 73-82.
!
!OCHCHO+HO2=>HOCH(OO)CHO            1.3E31  -7.532    1440 !          
!HOCH(OO)CHO => OCHCHO+HO2          1.9E29  -5.781   15790 ! 
!HOCH(OO)CHO => HOCHO+CO+OH         1.6E10   0.051   15190 ! 
! da Silva, G. J. Phys. Chem. A 115 (2011) 191-197.
!
OCHCHO+HO2=HOCHO+CO+OH               3.3E-4   3.995     300 !          
! da Silva, G. J. Phys. Chem. A 115 (2011) 191-197.
!
OCHCHO+HO2=OCHCO+H2O2                4.1E04   2.500   10206 !           
! pw, est=CH2O+HO2
!
OCHCHO+O2=OCHCO+HO2                  2.4E05   2.500   36461 !        
! pw, est=CH2O+O2
!
OCHCO=HCO+CO                         4.1E14   0.000    8765 ! 1.0 atm
! !#PLOG/  0.01                         3.8E12   0.000    8610/
! !#PLOG/  0.1                          3.8E13   0.000    8665/
! !#PLOG/  1.0                          4.1E14   0.000    8765/
! kinf                                1.1E14   0.133   10140 !
! da Silva, G. Phys. Chem. Chem. Phys. 12 (2010) 6698-6705.
!
OCHCO+O2=CO+CO2+OH                   3.3E14   0.000    2075 ! 1.0 atm
! !#PLOG/  0.01                         1.6E14   0.000    1540/
! !#PLOG/  0.1                          1.1E14   0.000    1300/
! !#PLOG/  1.0                          3.3E14   0.000    2075/
! kinf                                3.4E04   1.929     344 !
! da Silva, G. Phys. Chem. Chem. Phys. 12 (2010) 6698-6705.
!
!
HOCHO(+M)=CO+H2O(+M)                 7.5E14   0.000   68710 !           
 LOW  /4.1E15 0 52980/                                !
! J.-G. Chang, H.-T. Chen, S. Xu, M.C. Lin, J. Phys. Chem. A 111 (2007) 6789-6797.
!
HOCHO(+M)=CO2+H2(+M)                 4.5E13   0.000   68240 !           
 LOW  /1.7E15 0 51110/                                      !
! J.-G. Chang, H.-T. Chen, S. Xu, M.C. Lin, J. Phys. Chem. A 111 (2007) 6789-6797.
!
HOCHO+H=HOCO+H2                      2.3E02   3.272    4858 !            
! P. Marshall, P. Glarborg, Proc Combust Inst 35, in press
!
HOCHO+H=OCHO+H2                      4.2E05   2.255   14091 !           
! P. Marshall, P. Glarborg, Proc Combust Inst 35, in press
!
!HOCHO+H=HOCHOH                       2.5E05   2.357    9783 !            
! P. Marshall, P. Glarborg, Proc Combust Inst 35, in press
!
HOCHO+O=HOCO+OH                      5.1E01   3.422    4216 !            
! P. Marshall, P. Glarborg, Proc Combust Inst 35, in press
!
HOCHO+O=OCHO+OH                      1.7E05   2.103    9880 !            
! P. Marshall, P. Glarborg, Proc Combust Inst 35, in press
!
HOCHO+OH=HOCO+H2O                    7.8E-6   5.570   -2365 !
! J.M. Anglada, J. Am. Chem. Soc. 126 (2004) 9809-9820.
! P. Marshall, P. Glarborg, Proc Combust Inst 35, in press
!
HOCHO+OH=OCHO+H2O                    4.9E-5   4.910   -5067 ! 
! J.M. Anglada, J. Am. Chem. Soc. 126 (2004) 9809-9820.
! P. Marshall, P. Glarborg, Proc Combust Inst 35, in press
!
HOCHO+HO2=HOCO+H2O2                  4.7E-1   3.975   16787 !          
! P. Marshall, P. Glarborg, Proc Combust Inst 35, in press
!
HOCHO+HO2=OCHO+H2O2                  3.9E01   3.080   25206 !          
! P. Marshall, P. Glarborg, Proc Combust Inst 35, in press
!
HOCO+HO2=HOCHO+O2                    4.0E11   0.000       0 !  
! H.G. Yu, G. Poggi, J.S. Francisco, J.T. Muckerman, J. Chem. Phys. 129 (2008) 214307.
!
HOCHO+O2=OCHO+HO2                    3.0E13   0.000   63000 !
! P. Marshall, P. Glarborg, Proc Combust Inst 35, in press
!
OCHO=CO2+H                           1.0E10   0.000       0 !            
! P. Marshall, P. Glarborg, Proc Combust Inst 35, in press
!
OCHO+O2=CO2+HO2                      5.0E13   0.000       0  !          
! P. Marshall, P. Glarborg, Proc Combust Inst 35, in press
!


END
